LAMMPS (10 Feb 2015)
#------------- Init Section ---------------

include "brush.init"
units 			 lj
atom_style 		 full
pair_style 		 lj/cut/coul/long 2.5 6.0
pair_modify 		 shift yes mix arithmetic
bond_style 		 fene
angle_style 		 cosine/delta
boundary 		 p p f
neighbor 		 0.5 bin
neigh_modify 		 every 1 delay 3 check yes one 10000
kspace_style 		 pppm   0.0001
kspace_modify 		 slab   3.0
special_bonds 		 fene

#------------- Particle Definitions ------------

read_data "brush.data"
  orthogonal box = (0 0 0) to (20 20 62)
  1 by 1 by 4 MPI processor grid
  reading atoms ...
  3248 atoms
  scanning bonds ...
  2 = max bonds/atom
  scanning angles ...
  3 = max angles/atom
  reading bonds ...
  2250 bonds
  reading angles ...
  2850 angles
  3 = max # of 1-2 neighbors
  3 = max # of special neighbors
#------------- Settings Section -----------

include "brush.settings"
#Non-bonded interactions (pair-wise)
pair_coeff 1 1 0.0 1.0
pair_coeff 1 2 0.0 0.75
pair_coeff 1 3 0.0 0.75
pair_coeff 1 4 0.0 0.75
pair_coeff 1 5 0.0 0.75
pair_coeff 1 6 0.0 0.75
pair_coeff 2 2 1.0 0.5
pair_coeff 2 3 1.0 0.5
pair_coeff 2 4 1.0 0.5
pair_coeff 2 5 1.0 0.5
pair_coeff 2 6 1.0 0.5
pair_coeff 3 3 1.0 0.5
pair_coeff 3 4 1.0 0.5
pair_coeff 3 5 1.0 0.5
pair_coeff 3 6 1.0 0.5
pair_coeff 4 4 1.0 0.5
pair_coeff 4 5 1.0 0.5
pair_coeff 4 6 1.0 0.5
pair_coeff 5 5 1.0 0.5
pair_coeff 5 6 1.0 0.5
pair_coeff 6 6 1.0 0.5

#FENE Stretching Interactions
#bond_coeff bondtype k R0 epsilon sigma
bond_coeff 1 30.0 1.5 1.0 1.0


#Harmonic Angle Interaction
angle_coeff 1 1.0 180.0
angle_coeff 2 10.0 90.0
#------------- Run Section -----------

thermo 100
thermo_style custom step dt temp press vol etotal ke pe ebond eangle evdwl ecoul elong
run_style verlet
timestep 0.005

#SIMULATION BOX FIXES

group substrates type 1
200 atoms in group substrates
group bot_substr id <= 100
100 atoms in group bot_substr
group top_substr subtract substrates bot_substr
100 atoms in group top_substr
group polymers type 2:3
2250 atoms in group polymers
group ctr_ions type 4
750 atoms in group ctr_ions
group salt subtract all substrates polymers ctr_ions
48 atoms in group salt
group dump_group subtract all top_substr
3148 atoms in group dump_group
fix 1 substrates setforce 0.0 0.0 0.0
group not_substr subtract all substrates
3048 atoms in group not_substr
fix wall1 not_substr wall/lj126 zlo EDGE 1.0 1.0 2.5
fix wall2 not_substr wall/lj126 zhi EDGE 1.0 1.0 2.5

#Minimize the simulation box.
minimize 1.0e-4 1.0e-4 2000 2000
WARNING: Resetting reneighboring criteria during minimization (../min.cpp:168)
PPPM initialization ...
  G vector (1/distance) = 0.460213
  grid = 24 24 120
  stencil order = 5
  estimated absolute RMS force accuracy = 9.396e-05
  estimated relative force accuracy = 9.396e-05
  using double precision FFTs
  3d grid and FFT values/proc = 77372 51840
Neighbor list info ...
  1 neighbor list requests
  update every 1 steps, delay 0 steps, check yes
  master list distance cutoff = 6.5
Memory usage per processor = 10.912 Mbytes
Step Dt Temp Press Volume TotEng KinEng PotEng E_bond E_angle E_vdwl E_coul E_long 
       0        0.005            0    3932.9018        24800    7469.5841            0    7469.5841    7455.3852            0  -0.06342633  0.020829196    14.241539 
     100        0.005            0 -0.020360367        24800    24.288834            0    24.288834    14.174872    0.1564945  -0.14132409 -0.057982928    10.156774 
     200        0.005            0  -0.20848244        24800    21.050785            0    21.050785    14.305386    0.2054514  -0.30446308   -0.1182299    6.9626409 
     300        0.005            0  -0.31620362        24800    18.490006            0    18.490006    14.383713   0.23864593  -0.51986731  -0.16582301    4.5533377 
     400        0.005            0  -0.32437678        24800    16.960803            0    16.960803    14.361022   0.25857714    -0.687711  -0.20271894    3.2316341 
     434        0.005            0  -0.32563374        24800    16.471652            0    16.471652    14.326061   0.26082103  -0.74354108  -0.21083879    2.8391498 
Loop time of 6.82434 on 4 procs for 434 steps with 3248 atoms

Minimization stats:
  Stopping criterion = energy tolerance
  Energy initial, next-to-last, final = 
         7469.58413727      16.4731145869      16.4716521981
  Force two-norm initial, final = 1.51095e+07 78.8844
  Force max component initial, final = 390131 9.49032
  Final line search alpha, max atom move = 0.00985684 0.0935446
  Iterations, force evaluations = 434 705

Pair  time (%) = 1.54938 (22.7037)
Bond  time (%) = 0.0551313 (0.807863)
Kspce time (%) = 4.69922 (68.8597)
Neigh time (%) = 0.430396 (6.30679)
Comm  time (%) = 0.0508376 (0.744946)
Outpt time (%) = 0.0001719 (0.00251892)
Other time (%) = 0.039201 (0.57443)

Nlocal:    812 ave 1478 max 148 min
Histogram: 2 0 0 0 0 0 0 0 0 2
Nghost:    2606 ave 4062 max 506 min
Histogram: 1 0 0 0 1 0 0 0 0 2
Neighs:    95057.2 ave 189783 max 3018 min
Histogram: 2 0 0 0 0 0 0 0 0 2

Total # of neighbors = 380229
Ave neighs/atom = 117.066
Ave special neighs/atom = 1.38547
Neighbor list builds = 87
Dangerous builds = 0

#Run NVT Equilibration
velocity not_substr create 1.2 44334365
fix 10 not_substr nve
fix 2 not_substr langevin 1.2 1.2 100.0 986537
dump 1 dump_group custom 1000 equil.trj id type x y z
run 100000
PPPM initialization ...
  G vector (1/distance) = 0.460213
  grid = 24 24 120
  stencil order = 5
  estimated absolute RMS force accuracy = 9.396e-05
  estimated relative force accuracy = 9.396e-05
  using double precision FFTs
  3d grid and FFT values/proc = 77372 51840
Neighbor list info ...
  1 neighbor list requests
  update every 1 steps, delay 3 steps, check yes
  master list distance cutoff = 6.5
Memory usage per processor = 9.78698 Mbytes
Step Dt Temp Press Volume TotEng KinEng PotEng E_bond E_angle E_vdwl E_coul E_long 
     434        0.005    1.1260856  -0.17819825        24800    18.160261    1.6886084    16.471652    14.326061   0.26082103  -0.74354108  -0.21083879    2.8391498 
     500        0.005   0.68317553  -0.29755997        24800    18.193194    1.0244478    17.168747    14.635898   0.41184439  -0.48477443  -0.16741188    2.7731904 
     600        0.005     0.910054  -0.29534745        24800    18.190514    1.3646607    16.825853    14.646687   0.38610703  -0.46461528  -0.15599479     2.413669 
     700        0.005    1.2436177  -0.22745674        24800    18.182472    1.8648523     16.31762    14.636811   0.37995116   -0.4377278  -0.14048037    1.8790656 
     800        0.005    1.6278524  -0.18058284        24800    18.174578    2.4410268    15.733551    14.599372   0.38524744   -0.4102094   -0.1334979     1.292639 
     900        0.005    1.9638317  -0.10930409        24800    18.162978    2.9448406    15.218137    14.546474   0.38981427  -0.38868932  -0.13031628     0.800855 
    1000        0.005    2.1913974 -0.0041856398        24800    18.138874     3.286084     14.85279    14.479139   0.39757496  -0.38220569  -0.12419977    0.4824821 
    1100        0.005    2.3107663  0.075348218        24800    18.111846    3.4650823    14.646764    14.431002   0.38875495  -0.36760778  -0.11631238   0.31092623 
    1200        0.005    2.3566532    0.1308384        24800    18.091962    3.5338915     14.55807    14.399297    0.3973145  -0.35033844  -0.11090882   0.22270623 
    1300        0.005    2.3431734   0.12047138        24800    18.088944    3.5136779    14.575266    14.428217   0.44174291  -0.36496264  -0.11194656   0.18221539 
    1400        0.005    2.3062298   0.12663753        24800    18.068529    3.4582797    14.610249    14.452569   0.48240788  -0.36370448  -0.10158437   0.14056127 
    1500        0.005    2.3009975   0.12289852        24800    18.067499    3.4504337    14.617065     14.48714   0.52627201   -0.3741831  -0.10718116  0.085017275 
    1600        0.005    2.3005402   0.15966467        24800    18.054191    3.4497479    14.604444    14.502627   0.55306528  -0.38037884  -0.10999513  0.039125181 
    1700        0.005    2.2976849   0.15856253        24800    18.049416    3.4454663     14.60395    14.508225    0.5802811  -0.39012538 -0.096013802 0.0015837455 
    1800        0.005    2.2785978   0.11649597        24800    18.053618    3.4168444    14.636773    14.528578   0.64056908  -0.41058272  -0.10022667 -0.021564013 
    1900        0.005    2.2697075  0.092809801        24800     18.02749    3.4035131    14.623977    14.561575   0.63996669  -0.44365532  -0.10656697 -0.027343069 
    2000        0.005    2.2321156   0.11640716        24800    18.002293    3.3471426    14.655151    14.579242   0.65689356  -0.45160738   -0.1037827 -0.025594799 
    2100        0.005    2.2283275   0.15509201        24800    17.998447    3.3414621    14.656985    14.554748   0.69236175  -0.46358734  -0.10332453 -0.023213147 
    2200        0.005    2.1851292   0.15408172        24800    17.979336    3.2766846    14.702651    14.615504   0.71424081  -0.50743865 -0.099616636 -0.020038329 
    2300        0.005    2.1956285   0.12359795        24800    17.981728    3.2924288    14.689299    14.622658   0.73759935  -0.54652872  -0.10602039 -0.018409191 
    2400        0.005    2.1755174   0.12480025        24800    17.973269    3.2622714    14.710997    14.642411    0.7601091  -0.56926539  -0.10518945 -0.017068317 
    2500        0.005    2.1833935  0.097687291        24800    17.955093     3.274082    14.681011    14.659479   0.75645106  -0.60685524   -0.1074465 -0.020617039 
    2600        0.005    2.2166436   0.13675234        24800    17.934153    3.3239417    14.610212    14.656508   0.75683796  -0.66400314  -0.11466011 -0.024470695 
    2700        0.005    2.1661862  0.081784473        24800    17.943029    3.2482789     14.69475    14.700624   0.82047702  -0.68747965  -0.11415571 -0.024715459 
    2800        0.005    2.2255785   0.14339779        24800    17.909424    3.3373399    14.572084    14.677424   0.79217675  -0.75113951  -0.11816837 -0.028209036 
    2900        0.005    2.2291513  0.090116965        24800    17.907608    3.3426974     14.56491    14.752161   0.83939903    -0.860429  -0.12976462 -0.036455845 
    3000        0.005    2.2586195   0.10229916        24800    17.897302    3.3868861    14.510416     14.73721   0.84197748  -0.91155996  -0.11864763  -0.03856401 
    3100        0.005    2.2426487   0.06086145        24800    17.880911    3.3629374    14.517974    14.791687    0.8674294  -0.96826587  -0.12976431 -0.043112855 
    3200        0.005    2.2396699  0.087789829        24800     17.86653    3.3584705    14.508059    14.839069   0.83258479  -0.98914035  -0.12911585 -0.045338642 
    3300        0.005    2.2226516  0.074197028        24800    17.880702    3.3329509    14.547751     14.85445   0.89517257   -1.0296008  -0.12783696 -0.044433426 
    3400        0.005    2.2476074  0.083850815        24800    17.872237    3.3703731    14.501864    14.881256   0.88097221   -1.0775605  -0.13549145 -0.047312175 
    3500        0.005    2.2314084  0.055386888        24800    17.860127    3.3460821    14.514045    14.868523   0.89461706   -1.0582967  -0.14289657 -0.047901232 
    3600        0.005    2.2179738  0.092754945        24800    17.824954    3.3259364    14.499017    14.873427   0.86545242   -1.0633706   -0.1306834  -0.04580754 
    3700        0.005    2.2420211  0.042589275        24800    17.810259    3.3619963    14.448263    14.879291   0.88172487   -1.1150877  -0.14200077  -0.05566466 
    3800        0.005    2.2059225  0.084784586        24800    17.793089     3.307865    14.485224    14.881504   0.89170279   -1.0935849  -0.13714875 -0.057248799 
    3900        0.005    2.1644813  0.030905268        24800    17.780113    3.2457224     14.53439       14.905   0.89920089   -1.0694383  -0.13882925 -0.061542829 
    4000        0.005    2.1901147  0.054135421        24800    17.748906    3.2841606    14.464745    14.875483   0.87187206   -1.0718166  -0.14952057   -0.0612727 
    4100        0.005    2.1354455  0.070484183        24800    17.732952     3.202182    14.530769    14.863997   0.88224705   -1.0103232  -0.14056433 -0.064587184 
    4200        0.005    2.1116121  0.047677717        24800    17.724115    3.1664429    14.557672      14.8763   0.90125798   -1.0147952  -0.13660452 -0.068486368 
    4300        0.005     2.088226  0.047534167        24800    17.696571    3.1313746    14.565196    14.887608   0.88308122   -1.0110085  -0.12484523 -0.069639002 
    4400        0.005    2.0933915  0.068944049        24800    17.679379    3.1391205    14.540259    14.851963   0.87142486  -0.97686936  -0.13386805 -0.072391284 
    4500        0.005    2.0982394 0.0016419768        24800    17.646181    3.1463901    14.499791    14.845339   0.84136661  -0.98976884  -0.12443463 -0.072711045 
    4600        0.005    2.0769045 -0.00080237522        24800    17.633225    3.1143975    14.518827    14.858685   0.85041459  -0.97613453  -0.14131158 -0.072826359 
    4700        0.005    2.0448284 -0.002193319        24800    17.626612    3.0662983    14.560313    14.842562   0.85990445  -0.93815408  -0.12966816 -0.074331014 
    4800        0.005    1.9987124   0.04259335        24800    17.608019    2.9971455    14.610874    14.851158    0.8820805  -0.92345015  -0.11914036 -0.079774511 
    4900        0.005    2.0123748  0.041997265        24800    17.583615    3.0176329    14.565983    14.844075   0.84167687  -0.91555687   -0.1240612 -0.080151012 
    5000        0.005    2.0217642  0.050775343        24800    17.603088    3.0317126    14.571376    14.808853   0.89520729  -0.91812665  -0.13589689 -0.078661613 
    5100        0.005    1.9979077  0.057702998        24800    17.562917    2.9959389    14.566978    14.801545   0.85966045  -0.88381447  -0.12766278 -0.082749883 
    5200        0.005    1.9698633 -0.039313435        24800    17.533425    2.9538852     14.57954    14.815237   0.83547211  -0.86025586  -0.12527914 -0.085633655 
    5300        0.005    1.9644303  0.034321743        24800    17.516673    2.9457383    14.570935    14.825805   0.83049725   -0.8693981  -0.13430784 -0.081661482 
    5400        0.005    1.9352251 0.0069506154        24800    17.507866     2.901944    14.605922     14.82532   0.82601118  -0.84179024  -0.12223976  -0.08137945 
    5500        0.005    1.9277301 0.0054924969        24800    17.479591    2.8907048    14.588886    14.793666   0.82696531  -0.82137446  -0.12724048 -0.083130367 
    5600        0.005    1.9437058  0.047498342        24800    17.469286    2.9146611    14.554625    14.768124   0.81729271  -0.82667437   -0.1189717 -0.085146346 
    5700        0.005    1.9193448 -0.014673358        24800    17.454999    2.8781308    14.576868    14.803857   0.80004715  -0.81680014  -0.12421431 -0.086021864 
    5800        0.005    1.9036445 -0.019603291        24800    17.444134    2.8545876    14.589547    14.783434   0.79385596  -0.78226186  -0.11884167 -0.086639456 
    5900        0.005    1.8927159  0.051368166        24800    17.440075    2.8381997    14.601875    14.772507   0.79702808  -0.76076436  -0.12252738  -0.08436868 
    6000        0.005    1.8813368  0.053551264        24800    17.421381    2.8211364    14.600245    14.762146   0.81183125  -0.77780852  -0.11741475 -0.078509116 
    6100        0.005    1.9006955   0.01074149        24800    17.410915    2.8501655     14.56075    14.749609   0.80112676  -0.78573449   -0.1226585 -0.081593077 
    6200        0.005    1.8735636 0.0061500942        24800    17.401216    2.8094802    14.591736     14.75079    0.7890877  -0.75227106  -0.11364168  -0.08222949 
    6300        0.005    1.8552271  0.042480236        24800    17.389981    2.7819839    14.607997    14.775826   0.79421306  -0.76154801  -0.11750034 -0.082994161 
    6400        0.005    1.8381738 0.00047876109        24800     17.38805    2.7564118    14.631638    14.763693   0.80531724  -0.73855481  -0.11486931 -0.083948221 
    6500        0.005    1.8173548 -0.00052788844        24800    17.381731    2.7251929    14.656539    14.775589   0.82287694  -0.73003762  -0.12465103 -0.087239073 
    6600        0.005    1.8086141 0.0040938946        24800    17.358623    2.7120858    14.646537    14.772039   0.80780277  -0.71741728  -0.12642818 -0.089458903 
    6700        0.005    1.7894716  0.034545378        24800     17.33976     2.683381    14.656379    14.760921   0.79833401  -0.70335158  -0.11374786  -0.08577689 
    6800        0.005    1.7710806  0.021142138        24800    17.328568     2.655803    14.672765    14.764712   0.78676206  -0.68073929  -0.11311818 -0.084851631 
    6900        0.005    1.8067713  0.053587661        24800    17.314712    2.7093225     14.60539    14.699835   0.79842816   -0.7070057  -0.10609203 -0.079775675 
    7000        0.005    1.7859223  0.013682276        24800    17.302519    2.6780587     14.62446    14.722449   0.77752394  -0.69158265  -0.10772153  -0.07620879 
    7100        0.005    1.7708867 -0.017937626        24800    17.289305    2.6555122    14.633793    14.725175   0.79653088  -0.70269838  -0.10857036 -0.076644524 
    7200        0.005    1.7534784 0.0057715358        24800    17.292292    2.6294078    14.662885    14.717727   0.80340116  -0.67870359  -0.10682845 -0.072711412 
    7300        0.005    1.7448578  0.011667704        24800    17.281659    2.6164808    14.665179     14.68402   0.80781035  -0.64901271  -0.10209041 -0.075549146 
    7400        0.005    1.7307199  0.021621854        24800    17.270196    2.5952805    14.674915     14.70247   0.77924886  -0.62856827  -0.10092825  -0.07730718 
    7500        0.005    1.7262037  0.089286349        24800    17.255635    2.5885084    14.667127    14.711711   0.76277253  -0.62604341  -0.10429414 -0.077019568 
    7600        0.005     1.735316 0.0076003251        24800     17.25441    2.6021726    14.652237    14.699329     0.772261  -0.64331503 -0.095643085 -0.080394894 
    7700        0.005    1.7649276  0.043500614        24800    17.238916    2.6465763    14.592339     14.69099   0.74897538  -0.65158695  -0.11112657 -0.084912865 
    7800        0.005     1.737778 -0.0040447452        24800    17.239064    2.6058644      14.6332    14.705615     0.768912  -0.64692575  -0.10533712 -0.089064529 
    7900        0.005    1.7195973  0.018548606        24800    17.237698    2.5786018    14.659096    14.710388   0.79437087  -0.64063445  -0.11412745 -0.090901253 
    8000        0.005    1.7257795  0.044360837        24800    17.235927    2.5878722    14.648054    14.661158   0.80426807  -0.62717933  -0.10144641 -0.088746335 
    8100        0.005    1.7338534 0.00044053479        24800    17.206536    2.5999793    14.606557    14.688373   0.75344651  -0.63628359  -0.10894852 -0.090030195 
    8200        0.005     1.725972 -0.018885825        24800    17.197502    2.5881608    14.609341    14.699016    0.7405729  -0.64830532 -0.094959388 -0.086983437 
    8300        0.005    1.7292158 -0.024012235        24800    17.199429    2.5930251    14.606404    14.662345   0.75909809  -0.63076973 -0.096209401 -0.088060193 
    8400        0.005     1.718659 0.0021442579        24800    17.193828    2.5771949    14.616634    14.669551   0.77006947  -0.63557402  -0.10243841  -0.08497474 
    8500        0.005    1.6838468   0.03623591        24800    17.183934    2.5249926    14.658941    14.695872   0.76694375  -0.63199742 -0.090290093 -0.081587377 
    8600        0.005    1.6987625 -0.013513685        24800    17.173512    2.5473592    14.626153    14.672612   0.74835146  -0.60696021  -0.10524235 -0.082608035 
    8700        0.005    1.6605385 -0.034502214        24800    17.181263    2.4900408    14.691222    14.696325    0.7749426  -0.60186744 -0.094296162 -0.083882422 
    8800        0.005    1.6469886   0.05357813        24800    17.161656    2.4697223    14.691934     14.71871   0.75276302  -0.60208858  -0.09472083 -0.082728997 
    8900        0.005    1.6808391  0.036634459        24800    17.160858    2.5204824    14.640375    14.665919   0.77348052  -0.61193281  -0.10298831 -0.084103346 
    9000        0.005    1.6801463  0.028463471        24800    17.160948    2.5194434    14.641504    14.657241   0.77686628   -0.6063791  -0.10076225 -0.085461262 
    9100        0.005    1.6830468 -0.039635187        24800    17.130654     2.523793    14.606861    14.694539   0.73918167  -0.62760968  -0.11270961 -0.086540276 
    9200        0.005    1.6701347  0.014944258        24800    17.117504    2.5044307    14.613073    14.696811   0.71979555  -0.62469768 -0.097367029 -0.081468303 
    9300        0.005    1.6837948 -0.0094241662        24800    17.122216    2.5249146    14.597301    14.659061   0.74745698  -0.63089428 -0.098875718 -0.079446689 
    9400        0.005     1.678128 -0.0060365496        24800     17.10468     2.516417    14.588263    14.676762   0.72300227  -0.62631668  -0.10427853 -0.080906644 
    9500        0.005    1.6544506 -0.0046279062        24800    17.105678    2.4809118    14.624767     14.70207   0.75760591  -0.64068495  -0.11079584 -0.083428158 
    9600        0.005    1.6763218  0.050173531        24800     17.08941    2.5137085    14.575702    14.676084   0.73387126  -0.63766216  -0.11161368 -0.084977806 
    9700        0.005    1.6533635 -0.016884245        24800    17.086885    2.4792816    14.607604    14.696634   0.74527663  -0.63985739   -0.1124469 -0.082002604 
    9800        0.005    1.6402309  0.019547098        24800     17.07828    2.4595888    14.618691    14.688118   0.74993304  -0.64371872 -0.095791213 -0.079850202 
    9900        0.005    1.6332913  0.027359777        24800    17.071186    2.4491826    14.622003     14.68132   0.75850335  -0.63558451  -0.10437808 -0.077858286 
   10000        0.005    1.6172589  0.001528177        24800    17.067438    2.4251415    14.642296    14.720858   0.74723942  -0.65207191 -0.098962627 -0.074766998 
   10100        0.005    1.6584565  0.011422899        24800    17.041793    2.4869188    14.554874    14.668822   0.71865269  -0.64954895  -0.10484063 -0.078210492 
   10200        0.005    1.6448729  0.010840036        24800    17.032024    2.4665496    14.565474    14.646353   0.73983734  -0.63471914  -0.10610517 -0.079891551 
   10300        0.005    1.6574866  0.047417873        24800    17.025008    2.4854645    14.539543    14.632749   0.75191026  -0.65247501  -0.11211095 -0.080529575 
   10400        0.005     1.636281  0.011675729        24800    17.022883    2.4536659    14.569217    14.630841   0.74717216  -0.62744731  -0.10276451  -0.07858367 
   10500        0.005    1.6166184  0.015485398        24800    17.013164     2.424181    14.588983    14.674011   0.74492269  -0.63942745  -0.10976485  -0.08075819 
   10600        0.005    1.6075418 -0.043074727        24800    17.004081    2.4105703    14.593511    14.656145   0.75673152  -0.64222352 -0.097071184 -0.080071419 
   10700        0.005    1.6239554 0.0081606387        24800    16.996271    2.4351831    14.561088     14.66025   0.73915945  -0.66062866  -0.10138697 -0.076305968 
   10800        0.005    1.6272981 -0.032250517        24800    16.987604    2.4401957    14.547408    14.660349   0.74430249  -0.67299777  -0.10877509 -0.075470678 
   10900        0.005    1.6032974 -0.0055662073        24800    16.981168    2.4042056    14.576963    14.686108   0.74661161  -0.67675693  -0.10523675 -0.073763159 
   11000        0.005     1.618545  0.011483245        24800    16.986949      2.42707    14.559879    14.666766    0.7572324  -0.68303914  -0.10237994 -0.078700081 
   11100        0.005    1.6322128 0.0010516818        24800    16.968357    2.4475654    14.520792    14.660065   0.71394584  -0.66576325  -0.10805935 -0.079397049 
   11200        0.005    1.6121192  0.010480164        24800    16.975888    2.4174344    14.558454    14.638979   0.75912109  -0.65062063  -0.10850903 -0.080516436 
   11300        0.005    1.6023482 -0.016536195        24800    16.958766    2.4027823    14.555983    14.651266   0.75669672  -0.65501664  -0.11557105 -0.081392202 
   11400        0.005    1.6097905 -0.029009622        24800    16.945851    2.4139423    14.531908    14.666693   0.74847566  -0.68293773  -0.11882869 -0.081493477 
   11500        0.005    1.5975275  0.018254421        24800    16.923471    2.3955535    14.527917    14.663149   0.74525382  -0.69305484  -0.10985644 -0.077574395 
   11600        0.005    1.6061492  0.021986092        24800    16.925728    2.4084821    14.517246    14.640902   0.75357633   -0.7017222 -0.099245525 -0.076264795 
   11700        0.005    1.5914488  0.020800767        24800    16.922625    2.3864383    14.536187    14.641188   0.73729239  -0.65388818  -0.10786127 -0.080543904 
   11800        0.005    1.5955761 0.0019554953        24800    16.917864    2.3926273    14.525236    14.647582   0.75061005  -0.68578492   -0.1059338 -0.081237279 
   11900        0.005    1.5781941 0.0026693994        24800    16.897491    2.3665623    14.530929     14.67622   0.73146037  -0.68499886  -0.10628528 -0.085467631 
   12000        0.005    1.6041406  0.001931771        24800    16.894533    2.4054701    14.489063     14.63221   0.72610782  -0.68147746  -0.10292008 -0.084856855 
   12100        0.005    1.5960821 -0.013125956        24800    16.901962     2.393386    14.508576     14.65385   0.74912711  -0.70059144   -0.1053883 -0.088421059 
   12200        0.005     1.588728 0.0019332088        24800    16.895316    2.3823583    14.512957    14.668284   0.74836133  -0.70574561  -0.11123973 -0.086702872 
   12300        0.005    1.6063311  0.071330668        24800    16.868224    2.4087548    14.459469    14.657983   0.72308931  -0.71504887  -0.12002878 -0.086525223 
   12400        0.005    1.6073759  0.014968167        24800    16.880604    2.4103216    14.470283     14.63764   0.74778562  -0.72014857  -0.11030666 -0.084687398 
   12500        0.005     1.590319 0.0075985929        24800    16.871501    2.3847441    14.486757     14.65538   0.75873941  -0.73145747  -0.11198202 -0.083922854 
   12600        0.005    1.5998303 0.0045927336        24800    16.870987    2.3990066     14.47198    14.621106   0.75913021  -0.72087406  -0.10526132 -0.082120568 
   12700        0.005    1.5753342 -0.00021230448        24800    16.856161    2.3622737    14.493887     14.64045   0.75342522  -0.71448734  -0.10235992 -0.083141249 
   12800        0.005    1.5769713 -0.014914022        24800    16.838048    2.3647287    14.473319    14.651901   0.74479517  -0.72326185  -0.11228121 -0.087834274 
   12900        0.005      1.61375  0.021866249        24800    16.835651    2.4198797    14.415772    14.634489   0.74241016  -0.75915711  -0.11095774 -0.091012182 
   13000        0.005    1.5932535 -0.028210584        24800    16.824029    2.3891445    14.434885    14.683271   0.73451369  -0.76741203  -0.12372455 -0.091763328 
   13100        0.005    1.5925266  0.025311504        24800    16.825685    2.3880545     14.43763    14.664476   0.75163664  -0.76770525  -0.11946586 -0.091311519 
   13200        0.005    1.6005419  0.036430237        24800    16.827285    2.4000737    14.427211      14.6585   0.75069997  -0.77609035  -0.11410986 -0.091788986 
   13300        0.005    1.5776767 -0.0073680969        24800    16.821318    2.3657865    14.455532    14.649748    0.7664065  -0.75724317  -0.11135577 -0.092023577 
   13400        0.005    1.6039966 -0.0082015707        24800    16.810497    2.4052541    14.405243    14.620581   0.77418492  -0.78861375  -0.10962921 -0.091280388 
   13500        0.005    1.5863234   0.04913305        24800    16.800302    2.3787525    14.421549    14.612685   0.78441637  -0.77887506  -0.10965331 -0.087024076 
   13600        0.005    1.5960847  0.015715069        24800    16.795679    2.3933899    14.402289    14.654076   0.76987038  -0.81427723  -0.11936349 -0.088016526 
   13700        0.005    1.5888574  0.014801216        24800    16.791529    2.3825523    14.408977    14.666033   0.77382754  -0.82861844  -0.11516224 -0.087103043 
   13800        0.005    1.5841187 0.0048479046        24800    16.785388    2.3754465    14.409942    14.663521   0.76857065  -0.81214413  -0.12193478  -0.08807093 
   13900        0.005    1.5551785  0.018125075        24800    16.776558    2.3320495    14.444509      14.6492   0.76400377  -0.76677727  -0.11336735 -0.088550761 
   14000        0.005    1.5791368  0.022837462        24800    16.784811     2.367976    14.416835    14.642903   0.76751076  -0.79158648  -0.11397892 -0.088013375 
   14100        0.005     1.585902  0.011920864        24800    16.788029    2.3781207    14.409908     14.62323   0.79975809  -0.81317705   -0.1127618 -0.087141337 
   14200        0.005    1.5947963  0.050065905        24800    16.762509     2.391458    14.371051    14.628797    0.7684322  -0.83047258  -0.10960283 -0.086103207 
   14300        0.005    1.5824598  0.035058124        24800    16.752708    2.3729588    14.379749    14.638856   0.77152429  -0.82880559  -0.11469586 -0.087129944 
   14400        0.005    1.5769018  0.018968179        24800    16.737199    2.3646245    14.372574    14.635414   0.76858773  -0.82937274  -0.11670193 -0.085352402 
   14500        0.005    1.5795544  0.013131869        24800    16.739812    2.3686021     14.37121    14.644811   0.76722491  -0.82389503  -0.12815353 -0.088777668 
   14600        0.005    1.5693159 -0.016328046        24800    16.732207    2.3532492    14.378958     14.63986   0.78231631   -0.8272321  -0.12558686 -0.090399133 
   14700        0.005    1.6078999 0.00052333023        24800    16.725841    2.4111073    14.314734    14.623137   0.77079641  -0.87122812  -0.11755576 -0.090415833 
   14800        0.005    1.6011517  0.017788071        24800    16.706089     2.400988    14.305101    14.627187   0.75009181  -0.86704643  -0.11573498 -0.089397038 
   14900        0.005    1.5697294  0.031285057        24800    16.701898    2.3538691    14.348029    14.648393   0.76147068  -0.84938304  -0.12357948  -0.08887235 
   15000        0.005    1.5822816  0.034494913        24800    16.678915    2.3726916    14.306223    14.650504   0.75027434  -0.89171212  -0.11490173 -0.087941076 
   15100        0.005    1.5824387 -0.015943123        24800    16.666723    2.3729272    14.293796     14.65525     0.728848   -0.8890798  -0.11405208 -0.087169539 
   15200        0.005    1.5916132  0.046569932        24800    16.675041    2.3866848    14.288356    14.630856   0.75570148  -0.88785645  -0.12211155 -0.088233229 
   15300        0.005    1.5969242  0.034301846        24800    16.677057    2.3946487    14.282408    14.622759   0.76896271  -0.88485213  -0.13610591 -0.088355415 
   15400        0.005    1.5839878   0.02742775        24800    16.681232    2.3752502    14.305981    14.640744   0.77572864  -0.89063027  -0.13075517 -0.089106261 
   15500        0.005    1.5821148  0.055002401        24800    16.673086    2.3724415    14.300645    14.632751   0.76832265  -0.87969959  -0.13138214 -0.089346666 
   15600        0.005    1.5786289  0.011759183        24800      16.6792    2.3672143    14.311985    14.625667    0.7712706  -0.87132242  -0.12652422 -0.087106109 
   15700        0.005    1.5671328   0.05140037        24800    16.664589    2.3499754    14.314613    14.641284   0.77597076   -0.8991616  -0.11418741  -0.08929234 
   15800        0.005    1.5544992  0.023243127        24800    16.657271    2.3310308     14.32624    14.640242   0.78847008  -0.89720151  -0.11930364 -0.085966337 
   15900        0.005    1.5880766 -0.015864866        24800    16.630045    2.3813814    14.248664    14.622517   0.72799059  -0.89924674  -0.11520013 -0.087396318 
   16000        0.005    1.5626527  0.041563086        24800    16.641714    2.3432573    14.298457    14.638774   0.75955613  -0.89815908  -0.11385924 -0.087854816 
   16100        0.005    1.5941667  0.063531934        24800    16.611458    2.3905138    14.220944    14.623264   0.72264202   -0.9112548  -0.12365568 -0.090052046 
   16200        0.005    1.6025925 -0.014021092        24800    16.615033    2.4031486    14.211884    14.638436   0.73772316  -0.94135195  -0.13279702 -0.090125675 
   16300        0.005    1.5865237  0.025899129        24800    16.620231    2.3790528    14.241178    14.627819    0.7718384  -0.94265875  -0.12690577 -0.088915322 
   16400        0.005    1.5495272 -0.0097233349        24800    16.620079    2.3235753    14.296503    14.653482   0.80146549  -0.95719181  -0.11689441 -0.084357635 
   16500        0.005    1.5872617 0.0023600924        24800    16.606197    2.3801595    14.226038    14.626316   0.78698947  -0.97746735   -0.1223753  -0.08742554 
   16600        0.005    1.5566699 -0.024115926        24800    16.605453     2.334286    14.271167    14.669542    0.7946505  -0.98437971  -0.12096106 -0.087684086 
   16700        0.005    1.6048494  0.012640313        24800    16.590766    2.4065329    14.184233    14.668738   0.75656419   -1.0132687  -0.13922672 -0.088574119 
   16800        0.005    1.5683119 0.00076481267        24800    16.582899    2.3517436    14.231156    14.657294   0.77091882  -0.98191409  -0.12956381 -0.085578998 
   16900        0.005    1.5907852 -0.015937399        24800     16.57148    2.3854431    14.186037    14.635167   0.77238172   -1.0014484  -0.13495682 -0.085107096 
   17000        0.005    1.5493701   0.05152052        24800    16.568133    2.3233396    14.244793    14.662826    0.7757946   -0.9758258  -0.13154731 -0.086454756 
   17100        0.005    1.5793397 -0.050964717        24800     16.55354    2.3682802     14.18526    14.643743   0.75447652   -1.0063359  -0.11990808 -0.086715476 
   17200        0.005    1.6074342  0.051329719        24800    16.541819     2.410409     14.13141    14.581273   0.73886858  -0.97685924  -0.12637855 -0.085493841 
   17300        0.005    1.5562936  0.024348856        24800    16.556106    2.3337216    14.222384     14.66293   0.78323628   -1.0102757   -0.1260939   -0.0874127 
   17400        0.005    1.5450603 -0.003482594        24800     16.53909    2.3168769    14.222213    14.662666   0.77224366   -1.0017357  -0.12550136  -0.08545979 
   17500        0.005    1.5586379  0.019978741        24800     16.53299     2.337237    14.195753     14.62096   0.78053969  -0.99552546  -0.12393954 -0.086281341 
   17600        0.005    1.5583758 0.0084900412        24800    16.513165    2.3368441    14.176321    14.640946    0.7559123  -0.99612833  -0.13256573 -0.091842603 
   17700        0.005    1.5698665  0.023152423        24800     16.50281    2.3540748    14.148736    14.616679   0.73247649  -0.97269442  -0.13406249 -0.093662712 
   17800        0.005    1.5658403 0.00068672854        24800    16.509884    2.3480373    14.161847    14.627668   0.76221109  -0.99871567  -0.13268304 -0.096633376 
   17900        0.005    1.5561452   0.01287357        24800    16.489978    2.3334991    14.156479    14.626972   0.73428205  -0.97477519  -0.13273741 -0.097262265 
   18000        0.005     1.543987  0.037247833        24800    16.506248    2.3152674    14.190981    14.623869   0.78604324  -0.98920815  -0.13538419 -0.094338998 
   18100        0.005    1.5436982 -0.026400106        24800    16.486454    2.3148343    14.171619    14.635329   0.75196448  -0.99556079  -0.12824391 -0.091869804 
   18200        0.005    1.5136305 -0.0074602883        24800    16.495568    2.2697467    14.225821    14.638724   0.79887825  -0.99600792  -0.12912616 -0.086647233 
   18300        0.005    1.5515765  0.021126866        24800    16.471856    2.3266482    14.145208    14.603063   0.75005441  -0.98813227  -0.13312747 -0.086650033 
   18400        0.005    1.5317995  0.018178871        24800    16.472018    2.2969918    14.175026    14.647307   0.75119489   -1.0023715  -0.13263809 -0.088466436 
   18500        0.005    1.5469187 -0.029699652        24800     16.46077    2.3196637    14.141106    14.617432   0.75060742   -1.0035998  -0.13150385 -0.091829226 
   18600        0.005    1.5372663 -0.0009943973        24800    16.448047    2.3051894    14.142857    14.623414   0.75538505   -1.0070336  -0.13673773 -0.092170731 
   18700        0.005    1.5382801 -0.040954699        24800     16.43066    2.3067097     14.12395    14.649005   0.73211671   -1.0304972  -0.13424216 -0.092432572 
   18800        0.005    1.5426527  -0.01598386        24800    16.434659    2.3132666    14.121392    14.629948   0.75794535   -1.0487143  -0.13082842 -0.086958432 
   18900        0.005    1.5366959  0.052131312        24800    16.440334    2.3043342       14.136    14.618699   0.78766248   -1.0533607  -0.13168991 -0.085311603 
   19000        0.005    1.5310009  0.029769903        24800    16.435648    2.2957943    14.139853    14.606478   0.78717777   -1.0441235  -0.12889113 -0.080787577 
   19100        0.005    1.5191629 -0.033183827        24800    16.423992    2.2780427    14.145949    14.622644   0.77061229   -1.0385969  -0.12816254 -0.080547828 
   19200        0.005    1.5278192 -0.039151167        24800    16.397772    2.2910233    14.106749    14.633419   0.76199171   -1.0669404  -0.13896467 -0.082757039 
   19300        0.005    1.5483077 -0.00097283143        24800    16.386884    2.3217465    14.065138    14.598181    0.7413737    -1.054258  -0.13606556 -0.084093495 
   19400        0.005    1.5399189  -0.01958023        24800    16.384294    2.3091672    14.075127    14.619273   0.74972636   -1.0837007  -0.12828256 -0.081889714 
   19500        0.005    1.5140343  0.015805779        24800    16.383383    2.2703523     14.11303    14.622799    0.7589834   -1.0649304  -0.12327751 -0.080543736 
   19600        0.005    1.5083266 0.0050714171        24800    16.378964    2.2617934    14.117171    14.600952   0.77863846   -1.0558493  -0.12669399 -0.079876077 
   19700        0.005    1.5068751 -0.0071339054        24800    16.384335    2.2596167    14.124719    14.624565   0.77253071   -1.0706148  -0.12101972 -0.080742537 
   19800        0.005    1.4916454 -0.0053752478        24800    16.381947    2.2367793    14.145168    14.617218   0.78076865    -1.048956   -0.1253489 -0.078513236 
   19900        0.005    1.5293703  0.012264575        24800    16.360067    2.2933491    14.066718     14.61901   0.76390908   -1.0973134  -0.13894153 -0.079946179 
   20000        0.005     1.556848  0.038136557        24800    16.351261    2.3345531    14.016708    14.616573   0.74167722   -1.1305404  -0.13117162 -0.079829403 
   20100        0.005    1.5290008 -0.025251414        24800    16.347986     2.292795    14.055191    14.634754   0.74997235   -1.1261434  -0.12243256 -0.080960147 
   20200        0.005    1.5004758 -0.024194676        24800    16.338887    2.2500208    14.088866    14.625198   0.75904261   -1.0854753   -0.1261264 -0.083773051 
   20300        0.005    1.5229388 -0.0013553703        24800    16.331216    2.2837049    14.047511    14.593087   0.74742571   -1.0835119  -0.12538298 -0.084105937 
   20400        0.005    1.5277334 -0.023599461        24800    16.324849    2.2908945    14.033954    14.599367   0.74934379   -1.0966994  -0.13090115 -0.087156085 
   20500        0.005    1.5413079 -0.035073689        24800    16.329653      2.31125    14.018403    14.627213   0.75088496   -1.1366496  -0.13663906 -0.086406765 
   20600        0.005    1.5478165 -0.018910159        24800    16.311347    2.3210099    13.990337    14.615261   0.74529152   -1.1522882  -0.13006883 -0.087858352 
   20700        0.005    1.5224319 -0.0034840181        24800    16.311283    2.2829448    14.028338    14.632318   0.76891162   -1.1394977  -0.14189009 -0.091503437 
   20800        0.005    1.5491289 -0.035498186        24800    16.300869     2.322978    13.977891    14.636243   0.75472645   -1.1710818  -0.14765506  -0.09434243 
   20900        0.005    1.5464667  0.033575529        24800    16.281384    2.3189859    13.962398    14.632511    0.7536334    -1.181223  -0.14890944  -0.09361396 
   21000        0.005    1.4962399 -0.042530494        24800    16.288231    2.2436689    14.044562     14.67031   0.76838772   -1.1539133  -0.15003704 -0.090185169 
   21100        0.005    1.5199923 -0.068646232        24800    16.272063    2.2792864    13.992776     14.65416   0.74839775   -1.1786403  -0.14382202  -0.08731875 
   21200        0.005    1.5308446 0.0074221656        24800    16.263416      2.29556    13.967856    14.596957   0.75964912   -1.1498235  -0.15116598 -0.087761074 
   21300        0.005    1.5083146 -0.021447035        24800    16.269647    2.2617754    14.007871    14.613647   0.77029657   -1.1438634  -0.14054101 -0.091667859 
   21400        0.005    1.5081217 -0.045633419        24800    16.264941     2.261486    14.003455    14.636985   0.75695438   -1.1464932  -0.15026358  -0.09372719 
   21500        0.005    1.5343613 0.0012293141        24800    16.248292    2.3008334    13.947459    14.620402   0.73248111   -1.1697054  -0.14138127 -0.094337811 
   21600        0.005    1.5334136  0.042120139        24800    16.252216    2.2994122    13.952804    14.592389   0.76034758   -1.1584252  -0.14881931 -0.092688578 
   21700        0.005    1.5290306   0.02733192        24800    16.257849    2.2928397    13.965009    14.606785   0.77941971   -1.1742343  -0.15444898 -0.092511913 
   21800        0.005    1.5187292 0.0011012275        24800    16.235876    2.2773924    13.958483    14.604374   0.74362914   -1.1530482  -0.14133104 -0.095141098 
   21900        0.005    1.4900523 -0.010699115        24800    16.232995    2.2343903    13.998605    14.632173   0.75545533   -1.1555985  -0.13884182 -0.094582785 
   22000        0.005    1.5010078 0.00096052597        24800    16.222801    2.2508185    13.971983    14.608999   0.76177114   -1.1678734  -0.13900284 -0.091911293 
   22100        0.005    1.5140345 -0.021634457        24800    16.241007    2.2703525    13.970654    14.611189   0.79814916   -1.2140384  -0.13603485 -0.088610005 
   22200        0.005    1.5121588 -0.0015604648        24800    16.225757    2.2675398    13.958217    14.607458   0.77663803   -1.2001988  -0.13856041 -0.087120078 
   22300        0.005    1.4977518 -0.043366158        24800    16.228377     2.245936    13.982441    14.600496   0.78354364   -1.1706703  -0.13891621 -0.092012547 
   22400        0.005    1.5230935 -0.0038429195        24800    16.208661    2.2839369    13.924724    14.595298   0.73087763   -1.1611587  -0.14522403 -0.095068768 
   22500        0.005    1.4835759  0.030627644        24800    16.208713    2.2246787    13.984035    14.600188   0.77536505   -1.1465017  -0.14863391 -0.096382302 
   22600        0.005    1.4875134   0.01066833        24800    16.195205    2.2305832    13.964622    14.629047   0.76584537   -1.1885497  -0.14690004 -0.094821089 
   22700        0.005    1.5127533 -0.015098395        24800    16.161612    2.2684314     13.89318    14.620633   0.72455214   -1.2091085  -0.14942162 -0.093474591 
   22800        0.005     1.495582 -0.021385897        24800    16.160625    2.2426823    13.917943    14.631164   0.73156024   -1.1963803   -0.1558654 -0.092536022 
   22900        0.005    1.4908431 -0.055517066        24800    16.155371    2.2355761    13.919795     14.61394   0.73201801   -1.1961085  -0.14072416 -0.089329859 
   23000        0.005    1.4913007  0.020967369        24800     16.15581    2.2362623    13.919548    14.619739   0.74726392   -1.2073311  -0.15030239 -0.089821032 
   23100        0.005    1.4964859  0.024067318        24800     16.14841    2.2440377    13.904372    14.616945   0.74637411   -1.2249187   -0.1454898 -0.088538276 
   23200        0.005    1.5092683 0.0010113857        24800    16.136743    2.2632054    13.873538    14.614675    0.7380636   -1.2481013  -0.14695258 -0.084146681 
   23300        0.005    1.5055581  0.022064083        24800     16.13643    2.2576419    13.878788    14.610717   0.74841759    -1.248144  -0.14684932 -0.085352972 
   23400        0.005    1.5057682  0.015664598        24800    16.133601    2.2579569    13.875644    14.597591   0.75610652   -1.2636926   -0.1356233 -0.078737607 
   23500        0.005     1.491258  0.050000118        24800    16.125222    2.2361982    13.889023    14.624621   0.74775225   -1.2577728  -0.14353359 -0.082043344 
   23600        0.005    1.5235431 -0.003700397        24800    16.116729    2.2846111    13.832118    14.584187   0.74723641   -1.2676375  -0.14813632 -0.083531857 
   23700        0.005    1.4931707 -0.0087236938        24800    16.115501    2.2390664    13.876435    14.627926   0.76544072   -1.2652152  -0.16346102 -0.088255918 
   23800        0.005    1.4908975  0.018730759        24800    16.100835    2.2356578    13.865178    14.620261   0.75800295   -1.2873061  -0.13985337 -0.085926283 
   23900        0.005     1.474683 -0.017139581        24800    16.100315    2.2113435    13.888971    14.628033   0.75835421   -1.2721039  -0.13995228 -0.085360074 
   24000        0.005    1.5180719   0.05031432        24800    16.098062    2.2764068    13.821655    14.588236   0.75412572   -1.2832518  -0.14796509 -0.089489772 
   24100        0.005    1.5159126 -0.042528139        24800    16.078303    2.2731688    13.805134    14.611012   0.72731246   -1.2848278  -0.15539085 -0.092972511 
   24200        0.005    1.5141914 -0.0048214399        24800    16.081176    2.2705878    13.810588    14.627967   0.75428596   -1.3220028  -0.15616714 -0.093494157 
   24300        0.005    1.5003457  0.054252032        24800    16.081397    2.2498257    13.831572    14.607252   0.77779163   -1.3101832  -0.15065786 -0.092630648 
   24400        0.005    1.5139626 0.0014485635        24800    16.075507    2.2702447    13.805263     14.60035   0.76067192   -1.3175373  -0.14540216 -0.092819605 
   24500        0.005    1.4958889 -0.043415321        24800    16.067252    2.2431425    13.824109     14.63083   0.78006154   -1.3413636  -0.15395233 -0.091466521 
   24600        0.005    1.4855653  -0.03882073        24800    16.050699    2.2276619    13.823037    14.618914   0.76229194   -1.3186789  -0.15035548 -0.089134487 
   24700        0.005    1.4940026  0.037169052        24800    16.044885    2.2403139    13.804571    14.596331   0.74899032   -1.3077652  -0.14312309 -0.089862562 
   24800        0.005     1.490682  -0.01570722        24800    16.024784    2.2353346    13.789449     14.61888   0.72975563   -1.3158954  -0.15276965 -0.090521059 
   24900        0.005    1.4948377  0.036543887        24800    16.049393    2.2415663    13.807827    14.583243   0.77423177   -1.3036951  -0.15750555 -0.088446908 
   25000        0.005    1.4874533 -0.0070169267        24800    16.026672     2.230493    13.796179    14.595948   0.75410685   -1.3178691  -0.15019835 -0.085808376 
   25100        0.005    1.4943946  0.016080961        24800    16.013901    2.2409018    13.772999    14.587003   0.73252368   -1.3288096  -0.13822466 -0.079493175 
   25200        0.005    1.4757863 -0.045644891        24800    16.012479    2.2129979    13.799482    14.613601    0.7276727   -1.3234122  -0.13617944 -0.082200716 
   25300        0.005    1.4656293 -0.056791068        24800    16.016128    2.1977671    13.818361    14.603194    0.7474597   -1.3049912  -0.14096095 -0.086340336 
   25400        0.005    1.5169956  0.046475389        24800    16.010735    2.2747928    13.735942    14.588198   0.72662914   -1.3342462  -0.15530162 -0.089337227 
   25500        0.005    1.4792736 -0.019081859        24800    16.014543    2.2182272    13.796316    14.596687    0.7497303   -1.3187641  -0.14348467 -0.087852326 
   25600        0.005    1.5098473 0.0097697475        24800    15.997296    2.2640737    13.733222    14.594645   0.73694437   -1.3512864  -0.15625779 -0.090822823 
   25700        0.005    1.4951452 0.0025383562        24800    16.008926    2.2420274    13.766899    14.606875   0.77616558   -1.3666711  -0.16030718 -0.089163668 
   25800        0.005    1.5197885  0.033858532        24800    15.994298    2.2789808    13.715318    14.573377   0.75408612   -1.3720716    -0.152974 -0.087099529 
   25900        0.005     1.503481  0.033808955        24800    15.978733    2.2545272    13.724206    14.607674   0.75351111   -1.3921405  -0.15447521   -0.0903639 
   26000        0.005    1.5124551  0.035729912        24800    15.973641    2.2679842    13.705656    14.607489   0.74971181   -1.4108168  -0.15177884 -0.088948631 
   26100        0.005    1.5126996 -0.021292383        24800    15.965545    2.2683509    13.697194     14.61418   0.76328018   -1.4420371  -0.15073814 -0.087490856 
   26200        0.005    1.5022923 -0.0098915791        24800    15.954743    2.2527446    13.701998    14.615496   0.76479949   -1.4468603  -0.14304758 -0.088389535 
   26300        0.005    1.4800744 -0.032385907        24800    15.957306    2.2194281    13.737878    14.618115   0.78469684   -1.4230991  -0.14937174 -0.092462351 
   26400        0.005    1.4970276 -0.031162811        24800    15.951149      2.24485    13.706299    14.602608   0.78489528   -1.4381574  -0.15112038 -0.091927161 
   26500        0.005    1.5008709 -0.018244334        24800    15.952729    2.2506132    13.702116    14.616759   0.77860422   -1.4351757  -0.16355289 -0.094519088 
   26600        0.005    1.5114161 -0.022189195        24800    15.939211    2.2664261    13.672784    14.603239   0.76903929    -1.442038  -0.16444489 -0.093010998 
   26700        0.005    1.4825678 -0.0019869402        24800    15.928926     2.223167    13.705759    14.589209   0.77799933   -1.4157173  -0.15667499 -0.089056824 
   26800        0.005     1.499548 -0.032181263        24800    15.929912    2.2486294    13.681283    14.596742   0.76902537   -1.4321794  -0.16183954 -0.090465751 
   26900        0.005    1.4831111 -0.031312104        24800     15.92059    2.2239817    13.696609    14.588759   0.76388236   -1.4104661  -0.15533634 -0.090230381 
   27000        0.005    1.4773266 -0.039567652        24800    15.902685    2.2153077    13.687378    14.615907   0.74682997   -1.4338509  -0.15379545 -0.087712816 
   27100        0.005    1.4694152 -0.045887128        24800    15.916285    2.2034442    13.712841    14.593891   0.78430355   -1.4332152  -0.14609514 -0.086043095 
   27200        0.005    1.4543094 -0.011988781        24800    15.905466    2.1807924    13.724674    14.628669   0.76077128   -1.4177927  -0.15960816 -0.087365634 
   27300        0.005    1.4922561  0.028519373        24800     15.89799     2.237695    13.660295      14.5949   0.74724513   -1.4438203  -0.14969071 -0.088339438 
   27400        0.005    1.4822543 0.0014517318        24800      15.9038    2.2226969    13.681103    14.619851    0.7706469   -1.4621482   -0.1582498 -0.088997109 
   27500        0.005    1.5169308  0.013210474        24800    15.886637    2.2746957    13.611942    14.606632   0.73203845   -1.4753839  -0.16063046 -0.090714688 
   27600        0.005    1.4946245  0.037580342        24800    15.891928    2.2412466    13.650681    14.589603   0.75603791   -1.4560376  -0.15095734 -0.087965448 
   27700        0.005     1.510185  0.034904605        24800    15.876078    2.2645801    13.611498     14.59529   0.72284431   -1.4521676  -0.16412106 -0.090347507 
   27800        0.005    1.4813221 -0.0067536118        24800    15.860553     2.221299    13.639254    14.608109   0.72288578   -1.4410961  -0.15945183 -0.091193811 
   27900        0.005    1.4652608 -0.011836858        24800    15.844238    2.1972144    13.647024    14.627254   0.73069257    -1.468944  -0.15446469  -0.08751367 
   28000        0.005     1.447156 -0.029481186        24800    15.842792    2.1700657    13.672727    14.610606   0.75432111   -1.4556683  -0.14879574 -0.087736391 
   28100        0.005    1.4844741 -0.011388291        24800    15.850103    2.2260256    13.624078    14.598358   0.77183794   -1.4935564  -0.16118751 -0.091374619 
   28200        0.005    1.4885148 -0.0019942971        24800    15.837152    2.2320847    13.605068    14.621096   0.75293622   -1.5217506  -0.15667443 -0.090539765 
   28300        0.005    1.4839119  0.016437437        24800     15.83689    2.2251825    13.611708    14.576584   0.75705804   -1.4745341  -0.15561039 -0.091789375 
   28400        0.005    1.4757328 -0.079140224        24800     15.82955    2.2129176    13.616632     14.61421   0.75732893   -1.5007001  -0.16186623 -0.092340384 
   28500        0.005    1.4656864  -0.04502299        24800    15.821073    2.1978528    13.623221    14.628566   0.77462619   -1.5239555  -0.16459334 -0.091422715 
   28600        0.005    1.4667725 0.0086568972        24800    15.826719    2.1994814    13.627238    14.614404   0.78806711   -1.5101898  -0.17132595 -0.093717855 
   28700        0.005    1.4726396  -0.04156118        24800    15.809794    2.2082793    13.601514    14.576867   0.77876665   -1.4890014  -0.17436913 -0.090749097 
   28800        0.005    1.4488326 -0.012069162        24800     15.80349    2.1725798     13.63091    14.605704   0.76485371   -1.4875209  -0.16372612 -0.088400146 
   28900        0.005    1.4760573  0.022456632        24800    15.794552    2.2134043    13.581148     14.59836   0.72577243   -1.4975835  -0.15877887 -0.086622323 
   29000        0.005    1.4729351   0.02617731        24800    15.794168    2.2087224    13.585446    14.584944   0.72635265   -1.4685846  -0.17020451 -0.087062249 
   29100        0.005    1.4641289  0.036965307        24800     15.79761    2.1955172    13.602093    14.550411   0.75906154   -1.4702368   -0.1489585 -0.088184531 
   29200        0.005    1.4507237  0.007478877        24800    15.799862    2.1754156    13.624447     14.58427   0.76192262   -1.4731255  -0.15720842 -0.091412031 
   29300        0.005    1.4414275 0.0040163604        24800    15.787481    2.1614756    13.626006    14.610903   0.74342604   -1.4721331  -0.16474009  -0.09144966 
   29400        0.005    1.4584062 -0.0050114594        24800    15.791864    2.1869358    13.604928    14.596576   0.75181374   -1.4886267  -0.16492917 -0.089905781 
   29500        0.005    1.4767568 -0.026979428        24800    15.788713    2.2144533     13.57426    14.591401   0.74767977    -1.511832  -0.16514968 -0.087839416 
   29600        0.005    1.4309654 -0.00046275092        24800    15.794062    2.1457872    13.648275    14.616977   0.76219595   -1.4793995  -0.16479531 -0.086702714 
   29700        0.005    1.4405177 -0.021171704        24800    15.780751    2.1601113     13.62064    14.584735   0.74505591   -1.4686491   -0.1558155 -0.084685784 
   29800        0.005    1.4842051 -0.037091826        24800    15.772845    2.2256222    13.547223    14.546765   0.74359982   -1.5053307   -0.1527802 -0.085031327 
   29900        0.005    1.4527805  -0.03709921        24800    15.762552    2.1784998    13.584053    14.619699   0.72714254   -1.5150204  -0.16497326 -0.082795574 
   30000        0.005    1.4559295 -0.029305453        24800    15.767635    2.1832219    13.584414    14.610561   0.75276785   -1.5375347  -0.15912361 -0.082257208 
   30100        0.005    1.4473589 -0.011403484        24800    15.753625      2.17037    13.583255    14.627078   0.74060663   -1.5274687  -0.17265012 -0.084310346 
   30200        0.005    1.4600886 -0.021193327        24800    15.752038    2.1894585    13.562579    14.604933   0.73743482   -1.5284406  -0.16848239 -0.082865955 
   30300        0.005    1.4752979  0.017045857        24800    15.753189    2.2122656    13.540923    14.604391   0.75316638   -1.5727162  -0.16203134 -0.081886472 
   30400        0.005    1.4879161 0.0061439155        24800    15.744992    2.2311869    13.513805    14.590538   0.75557532   -1.5845644  -0.16384903 -0.083894276 
   30500        0.005     1.492416 0.0085705696        24800    15.740489    2.2379347    13.502554    14.599117   0.76326683   -1.5895389   -0.1814117 -0.088879386 
   30600        0.005     1.466126 -0.013426278        24800    15.731279    2.1985119    13.532767    14.654068   0.76951489   -1.6277053  -0.17301918 -0.090091561 
   30700        0.005    1.4852971 -0.007978988        24800    15.717409    2.2272597     13.49015    14.608905   0.77009304   -1.6200625  -0.17632687 -0.092458594 
   30800        0.005    1.4790159 -0.0043337923        24800    15.706858    2.2178408    13.489017    14.609502   0.74893276     -1.61805  -0.16343094 -0.087937125 
   30900        0.005    1.5042227 -0.019196605        24800    15.701941    2.2556393    13.446302    14.597216   0.74701569   -1.6318882  -0.17783264 -0.088208481 
   31000        0.005    1.4980103  0.046168768        24800    15.705191    2.2463236    13.458867    14.614987   0.77644489   -1.6840424  -0.16001773 -0.088504492 
   31100        0.005    1.4634836 -0.019042603        24800    15.718222    2.1945496    13.523673    14.626579    0.7870208   -1.6363414  -0.16144568  -0.09214055 
   31200        0.005    1.4716024  -0.02254109        24800    15.711856     2.206724    13.505132    14.599847   0.76282241   -1.5910037  -0.17079895 -0.095734399 
   31300        0.005    1.4520983 -0.021728394        24800    15.702006    2.1774768     13.52453    14.620553   0.77404474   -1.6070101  -0.16671411 -0.096344014 
   31400        0.005    1.4527644 0.0013225142        24800    15.688591    2.1784757    13.510115    14.605784   0.78573472   -1.6286155   -0.1589874 -0.093800819 
   31500        0.005    1.4734787 -0.0085179234        24800    15.685016    2.2095376    13.475478    14.592189   0.75493718   -1.6071073  -0.16916632 -0.095374049 
   31600        0.005    1.4737086 -0.0036987819        24800    15.675472    2.2098822    13.465589    14.613412   0.76632039   -1.6443299  -0.17228316 -0.097530321 
   31700        0.005    1.4749928  0.025289445        24800    15.672346     2.211808    13.460538    14.603737   0.76102791   -1.6384119  -0.17056138 -0.095253519 
   31800        0.005    1.4673089  0.030647405        24800    15.662883    2.2002858    13.462597    14.604294   0.74323866    -1.632215  -0.15742987 -0.095290733 
   31900        0.005    1.4637383  0.011049119        24800    15.664771    2.1949314    13.469839    14.618473    0.7563161   -1.6403523  -0.16967731 -0.094919994 
   32000        0.005    1.4517956 0.0072882746        24800    15.663808    2.1770229    13.486785    14.632979   0.75363991   -1.6280976  -0.17681182 -0.094924494 
   32100        0.005    1.4530527 -0.032434464        24800    15.659014     2.178908    13.480106    14.614889   0.77803524   -1.6573562  -0.16331805 -0.092143605 
   32200        0.005     1.432264 -0.020372795        24800    15.647146    2.1477345    13.499411    14.588466   0.76465296   -1.5938663  -0.17093687 -0.088904261 
   32300        0.005    1.4604039  0.015259231        24800    15.628421    2.1899314     13.43849    14.570599    0.7665627   -1.6302839  -0.18243496  -0.08595325 
   32400        0.005    1.4619996 -0.044249984        24800    15.614324    2.1923242       13.422    14.605852   0.75671378   -1.6755794      -0.1763 -0.088686946 
   32500        0.005    1.4774245   0.05486481        24800    15.611127    2.2154545    13.395673    14.606182    0.7523152   -1.6790068  -0.19421045  -0.08960731 
   32600        0.005    1.4422632  0.010551797        24800    15.607902    2.1627288    13.445174    14.626637   0.77489192   -1.6837972   -0.1839999 -0.088558451 
   32700        0.005    1.4489988 -0.029629103        24800    15.581046     2.172829    13.408217    14.612421   0.72559925   -1.6721638  -0.17109492  -0.08654407 
   32800        0.005    1.4880352  0.016140876        24800    15.576406    2.2313657     13.34504    14.570323    0.7197327   -1.6950956  -0.16301065 -0.086909203 
   32900        0.005    1.4632247  0.032269508        24800     15.57107    2.1941613    13.376909    14.574944    0.7548974   -1.6849741   -0.1806688 -0.087289759 
   33000        0.005    1.4334502   0.02982441        24800    15.573217    2.1495132    13.423704    14.613508   0.74217803   -1.6578119  -0.18460708 -0.089562941 
   33100        0.005     1.454723 0.0091483685        24800    15.568972    2.1814127     13.38756    14.587559   0.73972027   -1.6667639  -0.18150571 -0.091450202 
   33200        0.005    1.4421698 0.0076727335        24800    15.561565    2.1625887    13.398977    14.610738   0.76100757   -1.7017466  -0.18146281 -0.089559182 
   33300        0.005    1.4490174  0.013308554        24800    15.550015     2.172857    13.377158    14.598506   0.75026231    -1.708982  -0.17125287 -0.091375574 
   33400        0.005    1.4502175  0.021222987        24800    15.555383    2.1746565    13.380727    14.590458   0.74834928   -1.6876081  -0.17873856 -0.091733929 
   33500        0.005    1.4333012 -0.031873365        24800    15.543133    2.1492898    13.393843    14.608234   0.74670931   -1.7023683  -0.17016516 -0.088566179 
   33600        0.005    1.4491138 -0.043110464        24800     15.54948    2.1730015    13.376478     14.57473   0.75277302   -1.6955062  -0.16824563 -0.087273402 
   33700        0.005     1.432167 -0.015904622        24800    15.545985    2.1475891    13.398396    14.595614   0.76748847   -1.7041636  -0.17440124 -0.086142154 
   33800        0.005    1.4517043 -0.033008993        24800    15.531079     2.176886    13.354193    14.592957   0.74460194   -1.7179763  -0.17665991 -0.088729393 
   33900        0.005    1.4595002 -0.012576384        24800    15.511605    2.1885763    13.323028      14.5861   0.71103191   -1.7030115  -0.18274576 -0.088346911 
   34000        0.005    1.4479983 -0.034656791        24800    15.512788    2.1713287    13.341459    14.587708   0.72712266    -1.708928  -0.17733673 -0.087107271 
   34100        0.005    1.4544742 -0.049410314        24800    15.525308    2.1810396    13.344268    14.612067   0.73527837   -1.7463686  -0.16842792 -0.088280229 
   34200        0.005    1.4214731 -0.018841489        24800    15.512411    2.1315531    13.380858    14.593578   0.75136844   -1.7046511  -0.17132055 -0.088117223 
   34300        0.005    1.4611632  0.013625105        24800    15.523526    2.1910699    13.332456     14.57671   0.75316248   -1.7417023  -0.16933225  -0.08638157 
   34400        0.005    1.4509522  -0.04504419        24800    15.513646    2.1757583    13.337887    14.593094   0.74257723   -1.7304624  -0.17891829 -0.088402745 
   34500        0.005    1.4743184 -0.033953177        24800    15.498485    2.2107967    13.287688    14.583495   0.72962599   -1.7605025   -0.1755266 -0.089403988 
   34600        0.005    1.4381184 -0.033258868        24800    15.499873    2.1565135     13.34336     14.64174   0.74240504   -1.7787942  -0.17126361  -0.09072785 
   34700        0.005    1.4197083 -0.014216587        24800    15.520998    2.1289068    13.392092    14.582444   0.78872498    -1.715735  -0.17031077 -0.093031512 
   34800        0.005    1.4598376 -0.0068299505        24800    15.498974    2.1890822    13.309892     14.56354   0.73578459   -1.7216064  -0.17308614 -0.094739976 
   34900        0.005    1.4472091 0.0086976739        24800    15.490868    2.1701453    13.320723    14.601506   0.73048499   -1.7423597  -0.17514229 -0.093766196 
   35000        0.005    1.4468264 -0.0014852444        24800    15.490192    2.1695714     13.32062    14.561258   0.75119249   -1.7193413  -0.17884741 -0.093641293 
   35100        0.005    1.4383364 -0.052881021        24800    15.493782    2.1568404    13.336941     14.57658   0.75523761   -1.7234479  -0.17891496  -0.09251331 
   35200        0.005    1.4595844  0.023377728        24800    15.489655    2.1887026    13.300952    14.589017    0.7509855   -1.7620519  -0.18373345 -0.093264612 
   35300        0.005    1.4625558 -0.016165354        24800      15.4756    2.1931582    13.282442     14.57619   0.74306604   -1.7582317  -0.18372529  -0.09485698 
   35400        0.005    1.4754194  0.025174863        24800    15.471965    2.2124477    13.259518    14.591192   0.74359391   -1.7964636  -0.18453947 -0.094264564 
   35500        0.005    1.4331112  0.010198832        24800    15.468277    2.1490049    13.319272    14.576105   0.75560556   -1.7480859  -0.16952438 -0.094828745 
   35600        0.005    1.4431052 0.0041980294        24800      15.4524    2.1639913    13.288408    14.585028   0.74538289   -1.7542172  -0.18984366 -0.097941693 
   35700        0.005    1.4291544 -0.019388343        24800    15.439198    2.1430716    13.296127    14.560742   0.76940695   -1.7546079  -0.18171137 -0.097703269 
   35800        0.005    1.4129372 -0.0084163852        24800    15.448401    2.1187533    13.329647    14.576483   0.76522187   -1.7271707  -0.18652772 -0.098359567 
   35900        0.005    1.4109027 -0.013983172        24800    15.411051    2.1157025    13.295348    14.592385    0.7233572   -1.7301754  -0.19416149 -0.096057303 
   36000        0.005    1.4264052 -0.0048290293        24800    15.419296     2.138949    13.280347    14.580684   0.74021669   -1.7555652  -0.18646273 -0.098525668 
   36100        0.005    1.3932584 -0.0001899066        24800    15.428552    2.0892441    13.339308    14.588102   0.73674203   -1.7109431  -0.17615993 -0.098432239 
   36200        0.005    1.4102838 0.0035906609        24800    15.427426    2.1147744    13.312652    14.583321   0.72356672   -1.7111521  -0.18894389 -0.094139774 
   36300        0.005    1.4138906 -0.018120845        24800     15.42834     2.120183    13.308157    14.564257   0.73814917   -1.7196158  -0.18205973 -0.092573039 
   36400        0.005    1.4127782  0.015284618        24800    15.413758    2.1185148    13.295243    14.582329   0.74661296   -1.7684415  -0.17346736 -0.091790136 
   36500        0.005    1.4069662  -0.03226527        24800    15.404532    2.1097995    13.294732    14.579559   0.73625969   -1.7501727  -0.18013447 -0.090779653 
   36600        0.005    1.4160555  0.016794999        24800    15.403926    2.1234293    13.280497    14.547956   0.75580412   -1.7495914  -0.18346785 -0.090203882 
   36700        0.005    1.3730037 -0.015823154        24800    15.404847    2.0588715    13.345976    14.595484   0.75960075   -1.7344229  -0.18531295 -0.089372981 
   36800        0.005    1.4082545  0.015508158        24800    15.386863    2.1117314    13.275132     14.57915   0.73775817    -1.757955  -0.19178305 -0.092038198 
   36900        0.005    1.4236455 -0.026103261        24800    15.380562    2.1348108    13.245751      14.5704   0.73409463   -1.7822779  -0.18091783 -0.095547902 
   37000        0.005    1.4152678  0.012730336        24800    15.389888    2.1222481     13.26764     14.58605   0.72957826   -1.7742198   -0.1787568 -0.095011626 
   37100        0.005    1.4448043  0.044033792        24800    15.383719    2.1665392    13.217179    14.535371   0.72854502   -1.7645091  -0.18862924 -0.093597992 
   37200        0.005     1.445488  0.014723602        24800    15.383484    2.1675645     13.21592    14.566362   0.74225772   -1.8142094  -0.18436644 -0.094123849 
   37300        0.005    1.4287822  -0.04316153        24800    15.391227    2.1425134    13.248713    14.580654   0.74071995   -1.7985384  -0.18143913 -0.092682707 
   37400        0.005    1.4029403  0.056460926        24800    15.380763    2.1037625       13.277    14.591959   0.73862829   -1.7884754  -0.17587287 -0.089239131 
   37500        0.005    1.4039597 -0.084926478        24800    15.376874    2.1052912    13.271582    14.599321   0.73872598   -1.7929904  -0.18066726 -0.092807186 
   37600        0.005    1.3970096  0.034320844        24800    15.365907    2.0948692    13.271038    14.595805   0.72217396   -1.7647459  -0.19099057 -0.091204681 
   37700        0.005    1.4096131 -0.0070922727        24800    15.373116    2.1137686    13.259347      14.5693    0.7653787   -1.7995212  -0.18621189 -0.089598398 
   37800        0.005    1.4040096 -0.0034045723        24800    15.350623    2.1053659    13.245257    14.565279   0.73424337   -1.7853565  -0.17630273 -0.092605779 
   37900        0.005     1.419531 -0.0068032187        24800    15.349685    2.1286409    13.221044    14.597253   0.72996134   -1.8173146  -0.19470873 -0.094147261 
   38000        0.005    1.4223051  0.025035944        24800    15.348669    2.1328008    13.215868    14.573704   0.74363945   -1.8233079  -0.18464403 -0.093523177 
   38100        0.005    1.4227179 -0.048439806        24800    15.344546    2.1334199    13.211126    14.578869   0.74402704   -1.8266096  -0.19010343 -0.095057107 
   38200        0.005    1.4377475  0.039267781        24800    15.336818    2.1559573    13.180861    14.554826    0.7409429   -1.8376098  -0.18587303 -0.091425897 
   38300        0.005    1.4245624  -0.01840596        24800    15.335316    2.1361857     13.19913    14.584695   0.73453135   -1.8381094   -0.1881345 -0.093852534 
   38400        0.005    1.4170014 0.0010207924        24800    15.337217    2.1248478     13.21237     14.57137   0.75266829   -1.8328287  -0.18626013 -0.092580169 
   38500        0.005    1.4329596 -0.0030983016        24800    15.324539    2.1487777    13.175762    14.563566   0.75333443   -1.8533711  -0.19514971 -0.092618495 
   38600        0.005     1.412333 0.0061221484        24800    15.301824    2.1178472    13.183976    14.588787   0.71909963   -1.8425921  -0.19088562 -0.090432553 
   38700        0.005    1.4096534   0.01324348        24800    15.316497    2.1138291    13.202668    14.585937   0.74309634   -1.8434581  -0.19009204 -0.092815099 
   38800        0.005    1.4378091 -0.0026585397        24800    15.312945    2.1560497    13.156896      14.5649   0.77413883    -1.908771  -0.17876048 -0.094611695 
   38900        0.005    1.4204574  0.029612575        24800    15.288851      2.13003    13.158821    14.594175   0.73387591   -1.8856387  -0.18739068 -0.096201097 
   39000        0.005    1.4289082 -0.0079158196        24800    15.298337    2.1427023    13.155635    14.557921   0.75299165   -1.8773811  -0.18294039 -0.094956674 
   39100        0.005    1.4335255  0.033419879        24800    15.297653    2.1496263    13.148027       14.559   0.74563433   -1.8759145  -0.18783359 -0.092859401 
   39200        0.005    1.4142688 -0.032615476        24800    15.296751    2.1207501    13.176001    14.559015   0.76004076   -1.8600762  -0.18843666 -0.094541984 
   39300        0.005    1.3990066  0.044995325        24800    15.293937    2.0978638    13.196073    14.556849   0.76614388   -1.8509482  -0.18118262 -0.094789162 
   39400        0.005     1.431257 -0.023468252        24800    15.289771    2.1462245    13.143546    14.552992   0.74643399   -1.8715425  -0.18658389 -0.097753182 
   39500        0.005    1.4223661  -0.02856494        24800    15.294583    2.1328922    13.161691    14.578726   0.76551569   -1.8869967  -0.19761608 -0.097937951 
   39600        0.005    1.4345238 0.0022007428        24800    15.270938    2.1511232    13.119815    14.556677   0.73137591   -1.8773614  -0.19619079 -0.094685984 
   39700        0.005    1.4013132  0.039553539        24800    15.269077    2.1013227    13.167754    14.585598   0.73897032   -1.8692507  -0.19506876 -0.092494743 
   39800        0.005    1.4223672  0.027461403        24800    15.261573     2.132894    13.128679    14.553537   0.72611012   -1.8662797  -0.19210296 -0.092584716 
   39900        0.005    1.3850595 -0.029062845        24800    15.255522    2.0769497    13.178572    14.579185    0.7331724   -1.8538851  -0.18648211 -0.093417914 
   40000        0.005    1.4290551  0.015998984        24800    15.269674    2.1429227    13.126751    14.573453   0.74750424    -1.907735  -0.19476435 -0.091707236 
   40100        0.005    1.4163988 0.00016347614        24800    15.249245     2.123944    13.125301    14.580494   0.74965942    -1.927478  -0.18421563 -0.093157882 
   40200        0.005    1.4355637 0.0057520668        24800    15.254721    2.1526826    13.102039    14.549495   0.76464734   -1.9308342  -0.18595178 -0.095317978 
   40300        0.005    1.4191058 -0.024214843        24800    15.264195    2.1280033    13.136192    14.592732   0.78350907    -1.959434   -0.1876384 -0.092976464 
   40400        0.005    1.4089466  0.014387408        24800    15.253618    2.1127692    13.140849    14.574397   0.75723084   -1.9097056  -0.18644252  -0.09463058 
   40500        0.005     1.422329  -0.04987677        24800    15.236779    2.1328367    13.103942    14.569554   0.74362062   -1.9246005   -0.1924132 -0.092219281 
   40600        0.005    1.4184928 0.0079893757        24800    15.233471    2.1270841    13.106387    14.571011   0.73570465   -1.9230936  -0.18617076 -0.091064063 
   40700        0.005    1.4040549 -0.027289996        24800    15.221029    2.1054339    13.115595    14.591455   0.72724972   -1.9313991   -0.1836866 -0.088023859 
   40800        0.005    1.3885707  0.010004418        24800    15.215822    2.0822148    13.133607    14.579207   0.73490443   -1.9057489  -0.19133374 -0.083422159 
   40900        0.005    1.3856868 -0.031381765        24800    15.218957    2.0778903    13.141066    14.580591   0.73307256   -1.9000244  -0.18721529 -0.085357277 
   41000        0.005    1.3640181 -0.041651141        24800    15.219495    2.0453972    13.174098     14.59085   0.73857128   -1.8647132  -0.19716721 -0.093443277 
   41100        0.005    1.3673527 -0.028349402        24800    15.225352    2.0503975    13.174954    14.589954   0.75593981   -1.8882485  -0.18662571 -0.096065879 
   41200        0.005    1.3921595 -0.021454482        24800    15.213105    2.0875963    13.125508    14.579296   0.74697039   -1.9194988  -0.18506438 -0.096194868 
   41300        0.005    1.3699923 0.0059623482        24800    15.198813    2.0543558    13.144457    14.581902   0.73137656   -1.8954374  -0.17810669 -0.095277383 
   41400        0.005     1.405163 -0.0054638469        24800      15.1888    2.1070956    13.081705    14.540685   0.72607504   -1.9100139  -0.17803628 -0.097005575 
   41500        0.005    1.4069818 -0.0083451665        24800    15.198137    2.1098229    13.088314    14.534861   0.75154998   -1.9119471  -0.18782111  -0.09832896 
   41600        0.005    1.3902696 -0.016959066        24800    15.197247    2.0847624    13.112485    14.567877   0.74900283   -1.9197812  -0.18943793 -0.095176235 
   41700        0.005    1.4161239 -0.027519433        24800    15.194154    2.1235319    13.070622    14.556677   0.74091782   -1.9443315  -0.18654504 -0.096096862 
   41800        0.005    1.4187573 0.0071367954        24800    15.185914    2.1274807    13.058433     14.58497   0.73324919   -1.9678409   -0.1942247 -0.097720826 
   41900        0.005    1.3988149  0.019811469        24800    15.178431    2.0975763    13.080855    14.566859   0.72524212   -1.9228269  -0.19020141 -0.098217543 
   42000        0.005    1.3793481 -0.043873241        24800    15.181943    2.0683851    13.113558    14.550338   0.73688978   -1.8942545  -0.18475047  -0.09466555 
   42100        0.005     1.375131 -0.011372264        24800    15.169152    2.0620614     13.10709    14.572714   0.72440242   -1.9070399   -0.1903198 -0.092666741 
   42200        0.005    1.3882714 -0.031171104        24800    15.167595     2.081766    13.085829    14.578371   0.72788784   -1.9275347  -0.19738788 -0.095507664 
   42300        0.005    1.4033087 0.0026679533        24800    15.155516     2.104315    13.051201    14.591947   0.70606289   -1.9609626  -0.19260617 -0.093240953 
   42400        0.005    1.3989696 -0.031953228        24800    15.164127    2.0978083    13.066319    14.570499   0.72793831   -1.9508522  -0.18893586  -0.09233007 
   42500        0.005    1.4154859  0.039403193        24800    15.155381    2.1225751    13.032806    14.573166   0.72284872   -1.9732209  -0.19530823 -0.094679694 
   42600        0.005    1.3948482  0.044451994        24800    15.136178    2.0916282     13.04455    14.585755   0.70934059   -1.9626502  -0.19133961 -0.096555502 
   42700        0.005    1.3901681 -0.030243999        24800    15.134172    2.0846101    13.049562    14.572415   0.71757785   -1.9613444  -0.18477493 -0.094311985 
   42800        0.005    1.4080154  0.010959795        24800    15.147026    2.1113729    13.035653    14.556916   0.73261883   -1.9596319  -0.20195348  -0.09229652 
   42900        0.005    1.3832425 -0.026004002        24800    15.144196    2.0742249    13.069971    14.568622   0.73595465   -1.9483791  -0.19290687 -0.093318995 
   43000        0.005    1.4031178   0.02285068        24800    15.121855    2.1040286    13.017826    14.560318   0.72054651   -1.9697354  -0.19933504  -0.09396745 
   43100        0.005    1.4127816 0.0039608455        24800    15.132058    2.1185199    13.013538    14.571238   0.73463386   -2.0057958   -0.1942312 -0.092306801 
   43200        0.005     1.388713 -0.00037424617        24800    15.113193    2.0824282    13.030765    14.565571   0.72743071   -1.9856362  -0.18928295 -0.087317385 
   43300        0.005    1.3901922 0.00097525168        24800    15.127859    2.0846463    13.043213    14.570539   0.73580439   -1.9871775  -0.18603239 -0.089920339 
   43400        0.005    1.4076732   0.02545239        24800    15.114296    2.1108597    13.003437    14.572314   0.74092795   -2.0390512  -0.18320574 -0.087548316 
   43500        0.005    1.3897895  0.033210708        24800     15.10295    2.0840424    13.018908    14.569679    0.7309884   -1.9944661  -0.19824436 -0.089048895 
   43600        0.005    1.4194721  0.061886643        24800    15.103675    2.1285526    12.975123    14.559247   0.72931614   -2.0275583  -0.19778605   -0.0880964 
   43700        0.005    1.3975431  0.010259628        24800    15.109527    2.0956692    13.013858      14.5787   0.75210307   -2.0209541  -0.20016335 -0.095827653 
   43800        0.005    1.3863365 -0.027062315        24800    15.078568    2.0788645    12.999703    14.596274    0.7134616   -2.0143744  -0.19832179 -0.097336557 
   43900        0.005    1.3697959 -0.0025156695        24800    15.093984    2.0540613    13.039922     14.55746     0.751935   -1.9755853  -0.19546036 -0.098427011 
   44000        0.005    1.3697862  0.011199667        24800    15.078824    2.0540467    13.024777    14.576832   0.73222516   -1.9864357  -0.19941124 -0.098432785 
   44100        0.005     1.401067 -0.018899929        24800    15.070376    2.1009534    12.969422    14.566752   0.72607537   -2.0265255  -0.19728168 -0.099597878 
   44200        0.005    1.3901001  0.021938536        24800    15.056673    2.0845082    12.972164      14.5787   0.71082508   -2.0267495  -0.19119746 -0.099413371 
   44300        0.005    1.4076777 -0.010388692        24800    15.070749    2.1108664    12.959883    14.554711   0.73935189   -2.0304134  -0.20475523 -0.099011098 
   44400        0.005    1.3683121 0.0038501038        24800    15.062443    2.0518362    13.010607    14.595189   0.74286334   -2.0378005  -0.19168396 -0.097961076 
   44500        0.005    1.3984754  0.047865656        24800    15.077812    2.0970672    12.980745    14.545548   0.75485294   -2.0266175  -0.19402728 -0.099011627 
   44600        0.005    1.3809662 -0.011966667        24800    15.066944    2.0708115    12.996132    14.552324   0.72577638   -1.9901628  -0.19450891 -0.097296524 
   44700        0.005    1.3672131 0.00089897561        24800    15.062796    2.0501882    13.012608    14.576462   0.73309884   -2.0035434  -0.19774551 -0.095664335 
   44800        0.005    1.3762929 -0.030999807        24800    15.056806    2.0638038    12.993002    14.562146    0.7396754   -2.0354889  -0.18450464 -0.088825488 
   44900        0.005    1.4089252  -0.03734427        24800    15.054908    2.1127371    12.942171    14.583605   0.73509128   -2.0917128  -0.19802697  -0.08678642 
   45000        0.005    1.3819219 0.0081339498        24800    15.061816    2.0722447    12.989572    14.564101   0.75853139    -2.051801  -0.19160436 -0.089655216 
   45100        0.005    1.4068587 -0.016112191        24800    15.052931    2.1096383    12.943292    14.560475   0.73563653   -2.0705673  -0.19264907 -0.089602793 
   45200        0.005    1.3930928 -0.041246331        24800    15.040442    2.0889958    12.951446     14.54169   0.73654417   -2.0355994  -0.19749816 -0.093690553 
   45300        0.005    1.3511516 -0.071570564        24800    15.044016    2.0261034    13.017912    14.554468   0.74904371    -2.005424  -0.18862985 -0.091545546 
   45400        0.005     1.337961 -0.026260441        24800    15.014967    2.0063236    13.008643    14.582974   0.72298565    -2.013902  -0.19183913 -0.091575008 
   45500        0.005    1.3457781 -0.025504318        24800     15.02021    2.0180456    13.002165    14.563688   0.73326115   -2.0167085  -0.18634259 -0.091733245 
   45600        0.005    1.3577386 -0.030163588        24800    15.005918    2.0359809    12.969937      14.5528   0.71234536    -1.999815  -0.20226534 -0.093127428 
   45700        0.005    1.3757046 -0.013008846        24800    15.006316    2.0629216    12.943394    14.542987   0.71755699   -2.0218436  -0.20187662 -0.093429088 
   45800        0.005    1.3785546 -0.038839052        24800    15.004007    2.0671953    12.936812    14.554797   0.72009206   -2.0433915  -0.20128451 -0.093401392 
   45900        0.005    1.3729968 -0.034615348        24800    15.011492    2.0588611    12.952631    14.575221   0.72271249    -2.055162  -0.20063995 -0.089500634 
   46000        0.005    1.3723263 -0.037709231        24800    15.024454    2.0578557    12.966599     14.57127   0.74100158   -2.0451787  -0.20624637  -0.09424794 
   46100        0.005    1.3934443 -0.0021356881        24800    14.997788    2.0895229    12.908265    14.552197   0.70719462   -2.0498731  -0.20817461 -0.093079122 
   46200        0.005    1.3637135 -0.012133518        24800    15.012924    2.0449404    12.967983    14.575508   0.76448966    -2.085828    -0.195418 -0.090768854 
   46300        0.005    1.4103604 -0.014146474        24800    14.989924    2.1148893    12.875035    14.568385   0.69811867   -2.0965081  -0.20409784 -0.090862603 
   46400        0.005     1.397685 -0.004952698        24800    14.995346     2.095882    12.899464    14.546175   0.72973176   -2.0802881  -0.20285566 -0.093299268 
   46500        0.005    1.3881465 -0.0084809021        24800    15.001052    2.0815786    12.919473    14.562293   0.72641119   -2.0778819  -0.19728089 -0.094068109 
   46600        0.005     1.378289  0.011771313        24800      14.9933     2.066797    12.926503    14.553733   0.71501421   -2.0572382  -0.19219018 -0.092816542 
   46700        0.005     1.375546  -0.02359763        24800     14.99208    2.0626837    12.929396    14.551694   0.70792832   -2.0405608  -0.19372938   -0.0959352 
   46800        0.005    1.3861283 0.0029343667        24800    15.003062    2.0785522     12.92451    14.526471   0.74573949   -2.0535858  -0.19729221 -0.096822345 
   46900        0.005    1.3889409 -0.055634233        24800    15.000997    2.0827699    12.918227    14.559525   0.73164213   -2.0766043  -0.19929842 -0.097037164 
   47000        0.005    1.3712126 -0.016295573        24800     14.99702    2.0561856    12.940835    14.551778    0.7447996   -2.0603038  -0.20223107 -0.093208276 
   47100        0.005    1.3741401 -0.010906583        24800    14.985621    2.0605756    12.925046     14.56959   0.72618605   -2.0718652  -0.20489716 -0.093967819 
   47200        0.005    1.3763619 -0.020267042        24800    14.979403    2.0639072    12.915496    14.551428   0.72753338   -2.0619154  -0.20721236 -0.094337418 
   47300        0.005    1.3937737 -0.044815649        24800    14.979817    2.0900168      12.8898    14.540516    0.7220787   -2.0756443  -0.20336739 -0.093783081 
   47400        0.005    1.3804465 -0.013345672        24800     14.96638    2.0700322    12.896348    14.552775   0.74244431   -2.1180437  -0.18964073 -0.091187675 
   47500        0.005    1.3691043 -0.028155201        24800     14.97126    2.0530241    12.918236    14.554448   0.73790471   -2.0859289  -0.19698029 -0.091207314 
   47600        0.005    1.3643011  0.032836303        24800    14.960472    2.0458216     12.91465    14.559639   0.74250676   -2.0855693  -0.20902165 -0.092904141 
   47700        0.005    1.3805449 -0.028191296        24800    14.949171    2.0701798    12.878991    14.542456   0.72751776    -2.092049  -0.20718408 -0.091749506 
   47800        0.005    1.3477875  -0.02949028        24800    14.945414    2.0210588    12.924355    14.578455   0.72017313    -2.082593  -0.20216067 -0.089519188 
   47900        0.005    1.3410749 -0.017763518        24800    14.969435    2.0109931    12.958442    14.568884   0.77416446   -2.0850616  -0.20713379 -0.092410749 
   48000        0.005    1.3766375 -0.013551683        24800    14.940289    2.0643204    12.875968    14.551127   0.72772517   -2.1071537  -0.20397164 -0.091758214 
   48100        0.005    1.3614946  0.021688023        24800    14.939684    2.0416131     12.89807    14.567475   0.72931312   -2.1080473  -0.20030895 -0.090361764 
   48200        0.005    1.3823859 0.0021758999        24800    14.919787    2.0729404    12.846847    14.560194   0.70811058   -2.1327506  -0.19717205 -0.091535417 
   48300        0.005    1.3770768 -0.0087802699        24800    14.921993    2.0649793    12.857014    14.563643   0.72577652   -2.1386822  -0.20055474 -0.093168917 
   48400        0.005    1.3908468 -0.016213157        24800    14.919687    2.0856279    12.834059     14.54161   0.72125119   -2.1269156  -0.20722563 -0.094660711 
   48500        0.005    1.3960093 -0.018199771        24800    14.905419    2.0933693     12.81205    14.552449    0.7168619   -2.1532615  -0.20869265 -0.095306985 
   48600        0.005    1.3747044 0.0069777462        24800    14.900682    2.0614217     12.83926    14.554574   0.73350335   -2.1483092  -0.20558551 -0.094922296 
   48700        0.005     1.349334 0.0028851617        24800    14.900391    2.0233779    12.877013    14.586122   0.76056763   -2.1726312  -0.20278302  -0.09426304 
   48800        0.005    1.3820679  0.021240267        24800    14.900331    2.0724636    12.827867    14.546087   0.73117451   -2.1444055  -0.20842353 -0.096565142 
   48900        0.005    1.3627038 -0.014126146        24800    14.895138    2.0434263    12.851712    14.563694   0.72226542   -2.1343539  -0.20492805 -0.094966041 
   49000        0.005    1.3717326 -0.011244987        24800    14.901958    2.0569654    12.844993    14.540491   0.73285214   -2.1265183  -0.20830912 -0.093523295 
   49100        0.005    1.3483459 -0.035074942        24800    14.891104    2.0218962    12.869208    14.537021   0.73900757   -2.1152715  -0.20015188 -0.091397176 
   49200        0.005    1.3547462 -0.019976281        24800    14.898348    2.0314937    12.866855     14.57534   0.75612669   -2.1713802  -0.20319939 -0.090032802 
   49300        0.005    1.3675419 0.0088035112        24800    14.874754    2.0506813    12.824073    14.553536    0.7177987   -2.1521598  -0.20618914 -0.088913365 
   49400        0.005    1.3780435 -0.0089203384        24800    14.873455    2.0664288    12.807026    14.544981   0.71238006   -2.1606997  -0.20296894 -0.086665867 
   49500        0.005    1.3845688 -0.024713349        24800    14.868152    2.0762138    12.791938    14.537592   0.71836893   -2.1696485   -0.2056279 -0.088747023 
   49600        0.005    1.3618061 -0.048507838        24800    14.850263    2.0420802    12.808182     14.55114   0.70672868   -2.1684042  -0.19427271 -0.087009465 
   49700        0.005    1.3430261 -0.015542377        24800    14.850367    2.0139189    12.836448    14.558236   0.70529774   -2.1397246   -0.1972844 -0.090076806 
   49800        0.005    1.3637346 -0.0079744696        24800    14.853732     2.044972     12.80876    14.538933   0.72420623   -2.1509185  -0.20927329 -0.094187079 
   49900        0.005    1.3745159 -0.042649715        24800    14.841881    2.0611391    12.780742    14.548187     0.734567   -2.1942643  -0.21190219 -0.095845629 
   50000        0.005    1.3891205  0.041232171        24800    14.836365    2.0830392    12.753326    14.527643   0.75433079   -2.2211365  -0.21095564   -0.0965557 
   50100        0.005    1.3377121 -0.023531487        24800    14.829476    2.0059504    12.823526    14.550081    0.7492047   -2.1806781  -0.20152009  -0.09356172 
   50200        0.005    1.3483137 -0.037738048        24800    14.826326    2.0218479    12.804478    14.563585   0.73773916   -2.2002393  -0.20405245 -0.092553943 
   50300        0.005    1.3473887 -0.053489732        24800    14.823557    2.0204607    12.803096    14.595189   0.72716882   -2.2160679  -0.20690251 -0.096290953 
   50400        0.005    1.3697999 -0.0026513122        24800    14.820908    2.0540672    12.766841    14.585625   0.70539832   -2.2143391  -0.21203676  -0.09780632 
   50500        0.005    1.3827167 -0.071392873        24800    14.812356    2.0734365     12.73892    14.560698   0.70721161   -2.2213763  -0.21023624 -0.097377709 
   50600        0.005    1.3638629  0.015231369        24800    14.830071    2.0451645    12.784907     14.54771   0.74664036   -2.2113668   -0.2021044  -0.09597284 
   50700        0.005    1.3721895 0.0052407481        24800    14.821476    2.0576506    12.763826    14.542893   0.73989797   -2.2174875  -0.20637855 -0.095099356 
   50800        0.005    1.3388037 -0.009637138        24800    14.826576    2.0075873    12.818988    14.584914   0.74841811   -2.2180938  -0.20309085 -0.093159275 
   50900        0.005    1.3734214 -0.0010017809        24800    14.821901    2.0594978    12.762403    14.556999   0.74183125   -2.2372314  -0.21166415 -0.087531417 
   51000        0.005    1.3634187  0.011803934        24800    14.832633    2.0444984    12.788134    14.546539   0.74389054   -2.2007138  -0.21050191 -0.091079194 
   51100        0.005    1.3592398 -0.084064935        24800    14.818354     2.038232    12.780122    14.525814   0.71760095   -2.1684033  -0.20341937 -0.091470162 
   51200        0.005    1.3462585   0.01468671        24800    14.814641     2.018766    12.795875    14.523925   0.71234095   -2.1557997  -0.19259462 -0.091997544 
   51300        0.005    1.3651769 -0.012049275        24800    14.815182    2.0471349    12.768047    14.552932   0.70528775    -2.190288  -0.20434477 -0.095539377 
   51400        0.005    1.3646204 -0.058723952        24800    14.814458    2.0463005    12.768157    14.549877   0.69974976   -2.1781261  -0.20463692 -0.098706292 
   51500        0.005    1.3735164  0.017257321        24800     14.81166    2.0596403    12.752019    14.512622   0.71061732   -2.1696462  -0.20470566 -0.096868705 
   51600        0.005     1.353159 -0.065113447        24800    14.800955    2.0291136    12.771841    14.554888   0.71202276   -2.1844763  -0.21220276 -0.098390578 
   51700        0.005    1.3731918 -0.00021771664        24800    14.809337    2.0591535    12.750183    14.542335   0.74810051   -2.2368284  -0.20667639 -0.096747494 
   51800        0.005    1.3372596 -0.018215111        24800    14.812502    2.0052718     12.80723    14.541712   0.76356198    -2.188111  -0.21469145 -0.095241183 
   51900        0.005    1.3461952  0.035352007        24800    14.784229     2.018671    12.765558     14.54617   0.71960981   -2.2046043  -0.20188812 -0.093728926 
   52000        0.005    1.3394977 -0.0005349381        24800    14.783855     2.008628    12.775227    14.560179   0.72715492    -2.204145  -0.21218301 -0.095778897 
   52100        0.005    1.3566452  0.014548184        24800    14.782012    2.0343413    12.747671    14.521935   0.73674789   -2.2035178  -0.21568533 -0.091809271 
   52200        0.005    1.3570958 -0.045515048        24800    14.785774     2.035017    12.750757    14.525437   0.74361848   -2.2160087   -0.2114976 -0.090792178 
   52300        0.005    1.3230942 -0.00067589248        24800    14.794256    1.9840303    12.810225    14.569295   0.74909359   -2.2092256   -0.2092565 -0.089680909 
   52400        0.005    1.3247866  -0.04964358        24800    14.782441     1.986568    12.795873    14.561963   0.73747304   -2.2056521  -0.20652573 -0.091385128 
   52500        0.005    1.3564719  0.037251177        24800    14.778891    2.0340814     12.74481    14.559815   0.72756713   -2.2304832  -0.22005024  -0.09203923 
   52600        0.005     1.354441  0.013004631        24800    14.773376     2.031036     12.74234      14.5727   0.74472286   -2.2658946  -0.21908698 -0.090100692 
   52700        0.005    1.3556576 -0.0077453532        24800    14.770733    2.0328603    12.737873    14.542666    0.7285975   -2.2287994  -0.21445315 -0.090137851 
   52800        0.005    1.3494099  0.025216606        24800    14.774538    2.0234916    12.751046    14.559286   0.74150777   -2.2377059  -0.21811387 -0.093927875 
   52900        0.005    1.3454999 -0.0088034794        24800    14.775443    2.0176285    12.757814    14.548866   0.74146287    -2.222593  -0.21661687 -0.093304865 
   53000        0.005    1.3167412 -0.025041304        24800    14.768236    1.9745037    12.793733    14.535499   0.75210216   -2.1960431  -0.20521697  -0.09260863 
   53100        0.005     1.307015 -0.049024155        24800    14.758562    1.9599189    12.798643    14.530759   0.72605496   -2.1650855  -0.20171866 -0.091367172 
   53200        0.005    1.3035879 -0.044056862        24800    14.749806    1.9547798    12.795026    14.555661    0.6998207   -2.1744151  -0.19438433 -0.091655521 
   53300        0.005    1.2996728 0.0018380039        24800    14.756646    1.9489091    12.807737    14.554061   0.73073231   -2.1792558  -0.20585245 -0.091948342 
   53400        0.005    1.3288578  -0.01742562        24800    14.740476    1.9926729    12.747803    14.568956   0.71142213   -2.2312013  -0.20586542 -0.095508869 
   53500        0.005    1.3608745  0.013143244        24800    14.740074    2.0406833    12.699391    14.519504   0.71362363    -2.236192  -0.20184817 -0.095696446 
   53600        0.005    1.3404038  0.016516377        24800    14.736192    2.0099867    12.726205    14.546171   0.70746589   -2.2197839  -0.21024511 -0.097403477 
   53700        0.005    1.3491077 -0.044072672        24800    14.738971    2.0230385    12.715933    14.559444    0.7008493   -2.2429737   -0.2055374   -0.0958496 
   53800        0.005    1.3248088   0.01702572        24800    14.743792    1.9866014    12.757191    14.564471    0.7242537   -2.2313131  -0.20558403 -0.094636229 
   53900        0.005    1.3227252 -0.022983464        24800    14.745617     1.983477    12.762141     14.53535   0.72395694   -2.1942836  -0.21018383 -0.092698578 
   54000        0.005    1.3465727 -0.025170303        24800    14.736445    2.0192371    12.717208      14.5437   0.71910878   -2.2361386  -0.21366855 -0.095793907 
   54100        0.005    1.3348094   0.01089606        24800    14.733414    2.0015977    12.731816    14.552901   0.73129007   -2.2428971  -0.21181164 -0.097666737 
   54200        0.005    1.3458268  -0.01666719        24800    14.733725    2.0181186    12.715606    14.542601   0.73489674   -2.2514785  -0.21463543 -0.095777676 
   54300        0.005    1.3580895 0.0011343144        24800    14.724825    2.0365071    12.688318    14.528284   0.74712202   -2.2774191  -0.21348595 -0.096182392 
   54400        0.005    1.3312088   0.02068069        24800    14.717767    1.9961983    12.721569    14.539147   0.73033778    -2.243931  -0.20770196 -0.096282634 
   54500        0.005    1.3573815 0.0082026206        24800    14.712203    2.0354454    12.676757    14.533617   0.72433774   -2.2803341  -0.20254632 -0.098316888 
   54600        0.005    1.3710445 -0.029355151        24800    14.699041    2.0559335    12.643107    14.540271   0.71519904   -2.2964652  -0.21781281 -0.098084851 
   54700        0.005    1.3466544 -0.071409867        24800    14.699142    2.0193596    12.679783    14.569497   0.70484875   -2.2917803  -0.20541201  -0.09737018 
   54800        0.005     1.327702 -0.0044523796        24800    14.712371    1.9909398    12.721432     14.55178   0.73406682    -2.257542  -0.21128033 -0.095592535 
   54900        0.005    1.3607277  0.027740288        24800    14.690129    2.0404631    12.649666    14.526642   0.70433351   -2.2764835  -0.21219908 -0.092627144 
   55000        0.005    1.3428082 -0.049335272        24800    14.679844    2.0135922    12.666252    14.552563   0.70470746   -2.2903921  -0.20818492 -0.092441486 
   55100        0.005    1.3126832 -0.017551981        24800    14.679242    1.9684186    12.710824    14.550852   0.71421483   -2.2445002  -0.21691955 -0.092823597 
   55200        0.005    1.3368553 -0.028849209        24800    14.682652    2.0046656    12.677987    14.516121   0.70959744   -2.2474988  -0.20520657 -0.095026126 
   55300        0.005    1.3177916 -0.039945973        24800    14.668622    1.9760788    12.692543    14.549336   0.68960144   -2.2355169  -0.21187318 -0.099003757 
   55400        0.005    1.3191134 -0.00097909013        24800    14.678485    1.9780608    12.700424     14.55227   0.72319712   -2.2698462  -0.20552638 -0.099670713 
   55500        0.005    1.3305996 -0.015824664        24800    14.669827    1.9952849    12.674542    14.550696    0.7209668   -2.2855604  -0.21253574  -0.09902489 
   55600        0.005    1.3485974 -0.060682687        24800    14.686722    2.0222733    12.664448    14.541749    0.7468428    -2.314153  -0.21124253 -0.098748122 
   55700        0.005     1.350313 -0.017629635        24800    14.681542    2.0248458    12.656696    14.532062   0.73123965   -2.2966588   -0.2131289 -0.096817628 
   55800        0.005    1.3256276 0.00060636266        24800    14.666468    1.9878292    12.678639    14.542914   0.72789628   -2.2845982  -0.21447485 -0.093098095 
   55900        0.005    1.3431481 0.0011339849        24800    14.665121    2.0141019    12.651019    14.541936   0.71217753   -2.2951105  -0.21344408  -0.09454056 
   56000        0.005    1.3473316 -0.037199953        24800    14.654501    2.0203751    12.634126    14.535718   0.72304467   -2.3190477  -0.21412086 -0.091467859 
   56100        0.005    1.3351468 -0.087162884        24800    14.669069    2.0021036    12.666966    14.550226   0.73101322    -2.312794   -0.2094558 -0.092023789 
   56200        0.005    1.3321266  -0.03655167        24800    14.658677    1.9975747    12.661103     14.56034   0.72501375   -2.3153936  -0.21319539 -0.095662412 
   56300        0.005    1.3272399  -0.01958993        24800    14.667864    1.9902468    12.677618    14.543878   0.73578061   -2.2869508  -0.21806912 -0.097021454 
   56400        0.005    1.2978346 0.00058801677        24800    14.657145    1.9461525    12.710993    14.562593   0.73718306   -2.2775683  -0.21511902 -0.096095607 
   56500        0.005    1.3042313 -0.010178746        24800    14.655691    1.9557446    12.699947    14.543884   0.72637047   -2.2615527   -0.2149359 -0.093818532 
   56600        0.005    1.3244294 0.0065981026        24800    14.639745    1.9860324    12.653713    14.533232   0.71143096   -2.2812215  -0.21528315 -0.094445113 
   56700        0.005      1.33738 -0.021408734        24800    14.648592    2.0054524     12.64314    14.534747   0.71442929    -2.302928  -0.20874011 -0.094368362 
   56800        0.005    1.3339641 -0.028061823        24800    14.641133      2.00033    12.640803    14.560477   0.72301279   -2.3345668  -0.21345524 -0.094664725 
   56900        0.005    1.3379687 -0.0091816794        24800    14.625242    2.0063351    12.618907    14.566443    0.7065748   -2.3379408  -0.22162572 -0.094544768 
   57000        0.005    1.3459921 -0.030096184        24800    14.638405    2.0183665    12.620039    14.548723   0.72460994   -2.3476715   -0.2102372 -0.095384972 
   57100        0.005    1.3350666  -0.00508447        24800    14.624204    2.0019834     12.62222    14.560928    0.7004953    -2.330808   -0.2124276 -0.095967154 
   57200        0.005    1.3326202   0.03353201        24800    14.620059    1.9983148    12.621744    14.558131   0.69029075    -2.320599  -0.20863951 -0.097438926 
   57300        0.005    1.3186512   0.04741278        24800    14.618851    1.9773678    12.641483    14.510574   0.70423229   -2.2616709  -0.21322142 -0.098430746 
   57400        0.005    1.3489108 -0.025906814        24800    14.610913    2.0227433     12.58817    14.519044   0.69130866   -2.3140986  -0.21025735 -0.097826689 
   57500        0.005    1.3180477 -0.014180099        24800    14.608135    1.9764629    12.631672    14.550682   0.70975392    -2.323282  -0.21089208 -0.094589768 
   57600        0.005     1.324952  0.010233602        24800    14.602814    1.9868161    12.615997    14.542379   0.72232132   -2.3430248  -0.21038973 -0.095288018 
   57700        0.005    1.3297553 -0.020273323        24800    14.607674    1.9940189    12.613655    14.559564   0.70541701    -2.340717  -0.21569501 -0.094914537 
   57800        0.005    1.3240797 -0.0019194067        24800    14.607187    1.9855081    12.621679    14.541349   0.70898069   -2.3292798  -0.20783902 -0.091531587 
   57900        0.005    1.3360237  0.014790495        24800    14.615095    2.0034185    12.611677    14.550075   0.71498968   -2.3443101  -0.21545612  -0.09362232 
   58000        0.005    1.3208565  -0.01140787        24800    14.598302    1.9806748    12.617628    14.551158   0.69461135   -2.3094567  -0.22130936 -0.097375887 
   58100        0.005    1.3131696 -0.013877328        24800    14.618888    1.9691479     12.64974    14.552754   0.72698344   -2.3186773  -0.21505682 -0.096263056 
   58200        0.005    1.3290292 -0.050993017        24800    14.607961      1.99293    12.615031    14.561744   0.70956583   -2.3514946  -0.20956104 -0.095223034 
   58300        0.005    1.3427635  -0.02365562        24800    14.620896    2.0135251     12.60737    14.556877   0.72149384   -2.3586338  -0.21691206 -0.095454168 
   58400        0.005    1.3275699 -0.0041484388        24800    14.612837    1.9907417    12.622095    14.536352   0.72494426   -2.3327504  -0.21361887 -0.092831919 
   58500        0.005    1.3160353 -0.071092845        24800    14.606688    1.9734451    12.633243    14.545426   0.74567566   -2.3511964  -0.21367654 -0.092986371 
   58600        0.005    1.2964973 -0.024256826        24800    14.589064    1.9441471    12.644917    14.555583   0.73536169   -2.3468207  -0.20564475 -0.093562556 
   58700        0.005     1.321452  0.032103279        24800     14.59665    1.9815678    12.615082     14.51894   0.72836596   -2.3150149  -0.22099281 -0.096216635 
   58800        0.005     1.317631 -0.028423888        24800    14.593064     1.975838    12.617226    14.520211   0.72855018   -2.3159903  -0.22286789 -0.092676698 
   58900        0.005    1.3245861 -0.026172679        24800     14.59168    1.9862674    12.605413    14.540674   0.70398495   -2.3315073   -0.2146061 -0.093132552 
   59000        0.005    1.3103447 -0.010956816        24800    14.603793    1.9649119    12.638881    14.553678   0.72795087   -2.3372674  -0.21381954 -0.091660799 
   59100        0.005      1.33753  0.010143339        24800     14.57507    2.0056773    12.569393    14.523778   0.70898998   -2.3630628  -0.20918968 -0.091122335 
   59200        0.005    1.3215863 0.0052727496        24800    14.588896    1.9817691    12.607127    14.539664   0.73657391   -2.3556833  -0.21947605 -0.093951267 
   59300        0.005    1.3086683 -0.013846096        24800    14.574488    1.9623981     12.61209    14.519215   0.73658876   -2.3368094   -0.2125819 -0.094322167 
   59400        0.005    1.3238015 -0.0048868002        24800    14.571962    1.9850909    12.586872    14.521925   0.72248104   -2.3394854   -0.2233218 -0.094727329 
   59500        0.005    1.3143476 -0.035733962        24800    14.576582    1.9709143    12.605668    14.564684   0.73247821   -2.3811466  -0.21554121 -0.094806668 
   59600        0.005    1.2997819 -0.0080849495        24800    14.552329    1.9490726    12.603256    14.565546   0.69590508   -2.3481514  -0.21425744 -0.095785935 
   59700        0.005    1.3285726 -0.0091989704        24800     14.55113    1.9922454    12.558885    14.532484    0.7120947   -2.3865468  -0.20787507 -0.091272243 
   59800        0.005    1.3365668   0.05705473        24800    14.556422    2.0042329    12.552189     14.54303   0.72373959    -2.420331  -0.20320809 -0.091041914 
   59900        0.005    1.3538312 -0.041073821        24800    14.569991    2.0301215     12.53987    14.526654   0.73230927   -2.4053706  -0.21996078 -0.093762333 
   60000        0.005    1.3216543 -0.060367364        24800    14.572382    1.9818711    12.590511    14.551492   0.73201702   -2.3970774  -0.20895247 -0.086968559 
   60100        0.005    1.3291128   0.02090006        24800    14.563488    1.9930553    12.570432     14.52759   0.71733423   -2.3829285  -0.20710725 -0.084456747 
   60200        0.005    1.3245202 -0.047829713        24800    14.545218    1.9861686    12.559049    14.536478   0.70608102   -2.3841527  -0.21169056 -0.087666265 
   60300        0.005    1.3391025  0.034589967        24800    14.543689    2.0080354    12.535654    14.511818    0.7096621   -2.3824319  -0.21037433 -0.093020395 
   60400        0.005    1.3277749 -0.0091326426        24800    14.544246    1.9910492    12.553197     14.51891   0.70280617   -2.3665503  -0.21211322 -0.089855919 
   60500        0.005    1.3302749 0.0081451845        24800    14.526532     1.994798    12.531734    14.513763   0.66975645   -2.3556857  -0.20753211 -0.088567779 
   60600        0.005    1.3214044 -0.040764953        24800    14.529157    1.9814963    12.547661    14.543633   0.67597428   -2.3766336  -0.20686746 -0.088445868 
   60700        0.005    1.3214009 0.0081901488        24800    14.546871    1.9814911     12.56538    14.527316   0.73387747   -2.3962672  -0.20987432 -0.089671815 
   60800        0.005    1.3284745 -0.0062196217        24800    14.540845    1.9920983    12.548747    14.511395   0.69718541   -2.3586846  -0.20962675 -0.091522073 
   60900        0.005    1.3292549 -0.0033770759        24800    14.531932    1.9932684    12.538664     14.50928   0.70208239   -2.3580943  -0.22016504 -0.094439555 
   61000        0.005    1.3278328 -0.026345225        24800     14.54122     1.991136    12.550084    14.492759   0.71974642   -2.3529697  -0.21378799 -0.095663382 
   61100        0.005    1.2938272 -0.037923064        24800    14.551251    1.9401433    12.611108    14.540004   0.73835318   -2.3536278   -0.2181181 -0.095504268 
   61200        0.005    1.3177291 -0.060763431        24800    14.544153     1.975985    12.568168    14.566284   0.72888773   -2.4108455  -0.21908067 -0.097077661 
   61300        0.005    1.3370608 -0.015242732        24800    14.537737    2.0049737    12.532764    14.545698    0.7376628   -2.4345427  -0.21853213 -0.097522465 
   61400        0.005    1.3278815 -0.035505979        24800    14.537279    1.9912091     12.54607    14.529798   0.75203502   -2.4159943  -0.22050654 -0.099261478 
   61500        0.005    1.3501172  0.023622399        24800    14.529307    2.0245522    12.504755    14.510379   0.72593119   -2.4081268  -0.22265948  -0.10076932 
   61600        0.005    1.3081601 0.0088683611        24800    14.529379    1.9616361    12.567743    14.526662    0.7192974   -2.3514641  -0.22456609  -0.10218633 
   61700        0.005     1.322182   0.01745722        24800     14.52787    1.9826624    12.545207    14.514675   0.72327529   -2.3745707  -0.21814977  -0.10002283 
   61800        0.005    1.3018931  0.006661272        24800    14.509938    1.9522384    12.557699    14.544607   0.71274005   -2.3822743  -0.21835067 -0.099022535 
   61900        0.005    1.3025154 -0.061221327        24800    14.503758    1.9531715    12.550587    14.572903    0.7152668   -2.4173673  -0.22150473 -0.098711287 
   62000        0.005     1.318013 -0.020791409        24800    14.505252    1.9764108    12.528842    14.535041   0.71562542   -2.4144247  -0.21238239 -0.095018001 
   62100        0.005     1.320286 -0.032464069        24800    14.512903    1.9798192    12.533084    14.546695   0.73291467   -2.4223522  -0.22509746 -0.099076023 
   62200        0.005    1.3328686 -0.028263797        24800    14.502776    1.9986874    12.504089    14.538771   0.69957014    -2.412369  -0.22361004 -0.098272815 
   62300        0.005    1.3239587 -0.013223695        24800    14.515949    1.9853266    12.530623    14.525438   0.70072566   -2.3740808  -0.22316361 -0.098296916 
   62400        0.005    1.2973284 -0.023909132        24800    14.534775    1.9453935    12.589382    14.537008   0.73560547   -2.3622303  -0.22333262 -0.097669257 
   62500        0.005    1.3243832  0.039684605        24800     14.52639    1.9859632    12.540427    14.522318   0.74919108   -2.4244521  -0.21119221 -0.095437941 
   62600        0.005    1.3444292  0.012112366        24800    14.521046     2.016023    12.505023    14.505715   0.74033102   -2.4268209   -0.2173355  -0.09686642 
   62700        0.005    1.3151453  -0.01652572        24800    14.508905    1.9721106    12.536795    14.518047   0.75193111    -2.427169  -0.21172204 -0.094292319 
   62800        0.005    1.3028138  0.024231455        24800     14.49813    1.9536191     12.54451    14.518428    0.7348448   -2.4087909  -0.20750585 -0.092465601 
   62900        0.005    1.3170357 -0.032646748        24800    14.498565    1.9749454     12.52362    14.523811   0.71556512   -2.4050553  -0.21844712 -0.092253705 
   63000        0.005    1.2890926 -0.025363649        24800     14.51574    1.9330436    12.582696    14.527306   0.75483331   -2.3854213  -0.22668181 -0.087340397 
   63100        0.005    1.2956292 -0.014206905        24800    14.506976    1.9428454    12.564131    14.514187   0.74461483   -2.3794483  -0.22532955  -0.08989352 
   63200        0.005    1.2856561 0.0010929638        24800    14.495773    1.9278905    12.567883    14.519204   0.72985286   -2.3769677  -0.21421774 -0.089988416 
   63300        0.005    1.3138141 0.0033093624        24800     14.49904    1.9701143    12.528926    14.528135   0.73072359   -2.4251298  -0.21360211 -0.091200628 
   63400        0.005    1.3362011 0.0024606073        24800    14.487327    2.0036846    12.483643    14.529646    0.7312418   -2.4599593  -0.22180264 -0.095483344 
   63500        0.005    1.3088127 0.0093642647        24800    14.497123    1.9626145    12.534508    14.547143   0.73755727    -2.433679  -0.22220301 -0.094310555 
   63600        0.005    1.3160299  -0.02382552        24800    14.486253    1.9734371    12.512816    14.537622   0.71745374   -2.4253967  -0.22559201 -0.091271107 
   63700        0.005    1.3112309 -0.011638314        24800    14.491796    1.9662408    12.525556    14.571166   0.71262845   -2.4494496  -0.21959688 -0.089191958 
   63800        0.005    1.3148146 -0.017573597        24800      14.4979    1.9716146    12.526286    14.549209   0.71168589   -2.4275175  -0.21660791 -0.090483915 
   63900        0.005    1.3387643 -0.036141784        24800    14.497805    2.0075281    12.490277    14.535648   0.72146301   -2.4548572  -0.22166648 -0.090310112 
   64000        0.005    1.3194794 -0.016955886        24800    14.510198    1.9786097    12.531588    14.559415   0.73079988   -2.4281325  -0.23553917  -0.09495492 
   64100        0.005    1.3141118 -0.022531812        24800    14.492487    1.9705609    12.521927    14.536248   0.72201348   -2.4211357  -0.22366194 -0.091536747 
   64200        0.005    1.3282651 -0.018737825        24800    14.489391    1.9917842    12.497607    14.534104   0.70372567   -2.4379969  -0.20956654 -0.092659767 
   64300        0.005     1.315003  0.020678865        24800    14.492467    1.9718972     12.52057     14.51625    0.7235633   -2.4134358  -0.21154669 -0.094260961 
   64400        0.005    1.3128742 -0.0061743692        24800    14.478482     1.968705    12.509778    14.519762   0.71046002   -2.3979001  -0.22610363 -0.096441106 
   64500        0.005    1.3221815  -0.03935622        24800    14.485227    1.9826616    12.502565    14.520359   0.71033738   -2.4142065  -0.21790422 -0.096020002 
   64600        0.005    1.3288088 -0.034525608        24800    14.478747    1.9925995    12.486148    14.522877   0.71496531   -2.4256399  -0.22982766  -0.09622759 
   64700        0.005    1.3076639 0.0038902748        24800    14.476521    1.9608919    12.515629    14.522623   0.71700578   -2.4125972  -0.21712965 -0.094273116 
   64800        0.005    1.2993801 -0.010185983        24800    14.472055    1.9484701    12.523585    14.535167   0.71877946   -2.4125192  -0.22169294 -0.096148661 
   64900        0.005     1.317715  0.027780421        24800     14.47945    1.9759639    12.503486    14.528305   0.72544982   -2.4351664  -0.21745295 -0.097649449 
   65000        0.005    1.3248358  0.010711429        24800    14.478904    1.9866418    12.492262    14.554117   0.71041578   -2.4520008  -0.22072274 -0.099546908 
   65100        0.005    1.3144692 -0.027509898        24800    14.482036    1.9710968    12.510939    14.519293   0.71104874   -2.3993811  -0.21941513  -0.10060635 
   65200        0.005    1.3191321 3.7100732e-05        24800    14.487011     1.978089    12.508922    14.532527   0.73364379     -2.43577  -0.22109132  -0.10038753 
   65300        0.005    1.3013787  0.019387563        24800    14.494788     1.951467    12.543321     14.52198   0.73397516   -2.4032528  -0.21168209  -0.09769946 
   65400        0.005    1.3154602 -0.029388634        24800    14.493165    1.9725828    12.520582    14.540026   0.73455636   -2.4326625  -0.22703804 -0.094299866 
   65500        0.005    1.3155361 -0.0037689837        24800    14.487566    1.9726966    12.514869    14.527792    0.7205019   -2.4091751  -0.22876509  -0.09548414 
   65600        0.005    1.3228093 -0.011593736        24800    14.494851    1.9836031    12.511248    14.536015   0.72976291   -2.4380452  -0.21909434 -0.097389966 
   65700        0.005    1.3254007 -0.0096421725        24800    14.491561     1.987489    12.504072    14.552379   0.72324222   -2.4551959  -0.21845597 -0.097898057 
   65800        0.005    1.3220316 -0.017544109        24800    14.483514    1.9824368    12.501077    14.546278    0.7285322   -2.4522441  -0.22422417 -0.097264434 
   65900        0.005    1.3115318 0.0068044542        24800    14.471863     1.966692    12.505171    14.514949   0.72211206   -2.4196585  -0.21374999 -0.098481495 
   66000        0.005    1.3196902 -0.045444795        24800    14.483036    1.9789259     12.50411    14.515146   0.73665509   -2.4339374  -0.21575217 -0.098001233 
   66100        0.005     1.320633 -0.025407739        24800    14.474444    1.9803396    12.494105    14.508457   0.71708413   -2.4081912  -0.22557907 -0.097666497 
   66200        0.005    1.3106367  -0.01506719        24800    14.450023    1.9653497    12.484673    14.528742   0.69689699   -2.4180834  -0.22378815 -0.099094797 
   66300        0.005    1.2919678  0.013096339        24800    14.479613    1.9373551    12.542258    14.534509   0.73360887   -2.4152376  -0.21838765  -0.09223521 
   66400        0.005     1.293716 -0.0018071597        24800    14.465413    1.9399766    12.525436    14.517016   0.71784581    -2.393896  -0.22340064 -0.092129138 
   66500        0.005    1.3094882 -0.035890513        24800    14.464791    1.9636275    12.501164    14.526209   0.72440368   -2.4291826  -0.22596629 -0.094300079 
   66600        0.005    1.2977589 -0.033292195        24800    14.475034     1.946039    12.528995    14.536244   0.74621058   -2.4469666  -0.21308965 -0.093403291 
   66700        0.005    1.2649323 -0.018418211        24800    14.458097    1.8968143    12.561282     14.55771   0.72822049   -2.4195785  -0.21043454 -0.094634979 
   66800        0.005    1.3019099 0.00085316399        24800    14.445505    1.9522636    12.493241     14.52667   0.72533142   -2.4429105  -0.21882584 -0.097024039 
   66900        0.005    1.2738626 -0.025132618        24800    14.449784    1.9102056    12.539579    14.523366   0.73120541   -2.4059115  -0.21092664 -0.098154986 
   67000        0.005    1.2879355 -0.039675516        24800    14.462215    1.9313085    12.530907    14.519401   0.75457405   -2.4236902  -0.21916793  -0.10021005 
   67100        0.005    1.3068004  0.016957679        24800    14.442499    1.9595971    12.482902    14.510583   0.70796045    -2.411469  -0.22510767  -0.09906502 
   67200        0.005    1.2906732  0.010592084        24800    14.441724    1.9354138     12.50631    14.525525   0.71543155   -2.4247078  -0.21403926 -0.095898985 
   67300        0.005    1.2841999  -0.02772809        24800    14.440907    1.9257068    12.515201    14.530086    0.7204079   -2.4270378  -0.21413384 -0.094121626 
   67400        0.005     1.274477  0.010527027        24800    14.440905    1.9111269    12.529778    14.546892   0.72200528    -2.431107  -0.21275738 -0.095255554 
   67500        0.005    1.3148025 -0.0012922361        24800    14.421296    1.9715965    12.449699    14.532498   0.69415556   -2.4602724  -0.22064142 -0.096040254 
   67600        0.005    1.3132744 -0.0049140721        24800    14.431907    1.9693052    12.462602    14.530698   0.70786648   -2.4476477  -0.23287767   -0.0954371 
   67700        0.005    1.3035705 -0.048526764        24800    14.433872    1.9547538    12.479119    14.546871   0.71384625   -2.4568237   -0.2288946 -0.095880642 
   67800        0.005     1.289854  0.010147018        24800    14.436773    1.9341853    12.502588    14.511274   0.73677582   -2.4235604  -0.22560101 -0.096300329 
   67900        0.005    1.2711914 -0.026474224        24800      14.4285       1.9062      12.5223    14.534923   0.72347897   -2.4179156  -0.22085672 -0.097329549 
   68000        0.005    1.2773892 -0.0045179369        24800    14.425415    1.9154939    12.509921    14.535485     0.725477   -2.4315219  -0.22142614 -0.098093404 
   68100        0.005    1.2945134 -0.0068827051        24800    14.406756    1.9411723    12.465584    14.526358   0.70866761   -2.4498055  -0.21942465  -0.10021207 
   68200        0.005    1.3047423 0.0066815533        24800    14.404438    1.9565108    12.447928    14.542354   0.68452269   -2.4566989  -0.22307068 -0.099179859 
   68300        0.005    1.2941214 -0.013438421        24800    14.410805    1.9405845    12.470221    14.519231   0.70651949   -2.4382089  -0.22126448 -0.096055837 
   68400        0.005    1.2999058 -0.031015158        24800    14.412806    1.9492584    12.463547    14.543034   0.71030816   -2.4716641  -0.21950917 -0.098621296 
   68500        0.005    1.3335606 -0.047150153        24800    14.398401    1.9997251    12.398675    14.523078    0.7059834   -2.5082388  -0.22340934 -0.098737855 
   68600        0.005    1.3146074  0.019598293        24800    14.394476     1.971304    12.423172     14.53398   0.69007398   -2.4752906  -0.22972232 -0.095869098 
   68700        0.005     1.298926 -0.069057183        24800    14.401689    1.9477892      12.4539    14.544264   0.73187595   -2.5077248  -0.21737124 -0.097144635 
   68800        0.005    1.3159761 -0.023702158        24800    14.393603    1.9733563    12.420247    14.527317   0.73063379   -2.5101656  -0.22966262 -0.097876195 
   68900        0.005    1.3194751 -0.035715114        24800    14.380555    1.9786033    12.401952    14.525187    0.7115107   -2.5141241  -0.22670956 -0.093912696 
   69000        0.005    1.2879815 -0.072169023        24800    14.379206    1.9313774    12.447828    14.539268    0.7108441   -2.4889645  -0.22061691  -0.09270186 
   69100        0.005    1.2885246 -0.014705587        24800     14.37991    1.9321919    12.447718    14.529038   0.70893939   -2.4758018  -0.22135538 -0.093102824 
   69200        0.005    1.3097165 -0.0013216151        24800     14.38479    1.9639699     12.42082    14.529166   0.69454252   -2.4911135  -0.21894304  -0.09283218 
   69300        0.005    1.2714717 -0.023821801        24800    14.380921    1.9066204    12.474301     14.52505   0.68739466   -2.4228458  -0.22119857 -0.094098984 
   69400        0.005    1.2787759 -0.056825561        24800    14.382854    1.9175733     12.46528    14.539432   0.67005717   -2.4271682  -0.22387403 -0.093167003 
   69500        0.005     1.296214 0.00075233974        24800     14.39432    1.9437224    12.450598    14.515737   0.71027443   -2.4733949  -0.21114937  -0.09086881 
   69600        0.005    1.2986407  0.019256282        24800    14.377167    1.9473613    12.429806    14.510723    0.6906868   -2.4514424  -0.22628427 -0.093877956 
   69700        0.005    1.3230853 -0.027842879        24800    14.369337     1.984017    12.385321    14.527167   0.67105133   -2.5011587  -0.21756069 -0.094178387 
   69800        0.005    1.3148883  -0.01444527        24800    14.389402    1.9717252    12.417677    14.543913   0.69965008   -2.5024382   -0.2249125  -0.09853595 
   69900        0.005    1.3106869 0.0060242329        24800    14.380007    1.9654251    12.414582     14.51877   0.69385725   -2.4884103  -0.21254441  -0.09709109 
   70000        0.005    1.2872771  0.039129518        24800    14.381177    1.9303211    12.450856    14.498334   0.70331284     -2.43938  -0.21679358  -0.09461739 
   70100        0.005    1.3145958 -0.050898547        24800    14.381068    1.9712865    12.409781    14.535705    0.7049859   -2.5078118  -0.22571155 -0.097386082 
   70200        0.005    1.2962165  0.061676167        24800    14.377406    1.9437261     12.43368    14.522841   0.72631265   -2.4945628  -0.22456594 -0.096345142 
   70300        0.005    1.3030346 -0.035427318        24800    14.368843    1.9539501    12.414893    14.536019   0.70158849   -2.5032212   -0.2200018 -0.099491684 
   70400        0.005    1.3153333 0.0092346986        24800    14.377079    1.9723925    12.404687    14.496316   0.72527554    -2.498618  -0.21988559 -0.098401335 
   70500        0.005    1.2984786 -0.0030966629        24800    14.367813    1.9471183    12.420694    14.518617   0.70792633   -2.4805689  -0.22620733 -0.099072301 
   70600        0.005    1.3114868 -0.023241667        24800    14.376889    1.9666245    12.410265    14.518528   0.70633708   -2.4902242  -0.22547828 -0.098897786 
   70700        0.005    1.2903451 -0.034262671        24800    14.370087    1.9349217    12.435165    14.542497   0.71225167   -2.4983989  -0.22038104  -0.10080312 
   70800        0.005     1.302759 -0.010680683        24800    14.368997    1.9535368     12.41546    14.543882    0.7117805   -2.5136607  -0.22634344  -0.10019826 
   70900        0.005    1.3064173  0.026851392        24800    14.362587    1.9590226    12.403565    14.527938    0.7098062   -2.5059417  -0.22967076 -0.098567425 
   71000        0.005    1.3192498  0.011967229        24800    14.362748    1.9782655    12.384483    14.515538    0.6959201   -2.4994079  -0.22670319  -0.10086476 
   71100        0.005    1.3078469 -0.019298732        24800    14.366248    1.9611664    12.405082    14.520463   0.71143278   -2.5001476  -0.22384459   -0.1028219 
   71200        0.005    1.3215792  0.004473611        24800    14.355146    1.9817584    12.373387    14.541174   0.70472875   -2.5462805  -0.22496699  -0.10126805 
   71300        0.005    1.2964101 -0.037210456        24800    14.354298    1.9440165    12.410282    14.542062   0.71829733   -2.5133511  -0.23722329 -0.099502918 
   71400        0.005    1.3164949 -0.028796071        24800    14.351968    1.9741344    12.377834    14.520446   0.72560904   -2.5356724   -0.2325455  -0.10000344 
   71500        0.005    1.3085497  0.010605509        24800    14.331741    1.9622202    12.369521    14.518389   0.68545725   -2.4941355  -0.23817163  -0.10201862 
   71600        0.005    1.3265813 0.00043348735        24800    14.328129    1.9892593    12.338869    14.532303   0.68545642   -2.5444056  -0.23448525 -0.099999428 
   71700        0.005    1.3133218 -0.044503402        24800    14.335148    1.9693762    12.365772    14.535513   0.70292413   -2.5503577  -0.22371575 -0.098591404 
   71800        0.005     1.306005 -0.066247902        24800    14.333674    1.9584044     12.37527    14.558447   0.69454864    -2.555164   -0.2223088  -0.10025333 
   71900        0.005     1.283554 -4.6304353e-05        24800    14.314372    1.9247383    12.389633    14.534003   0.70976568   -2.5321002  -0.22242828 -0.099606921 
   72000        0.005    1.2841177 -0.0090434795        24800    14.331931    1.9255836    12.406348    14.517469   0.73841071   -2.5293618  -0.22270129  -0.09746907 
   72100        0.005    1.2878132 -0.019372626        24800    14.323136     1.931125    12.392011    14.545592   0.72208156   -2.5529911  -0.22485588 -0.097815612 
   72200        0.005    1.2871514 0.0016991468        24800    14.324348    1.9301327    12.394215    14.537591   0.72141756   -2.5362115  -0.23086502 -0.097716294 
   72300        0.005    1.2859177 -0.0086306415        24800    14.317552    1.9282827    12.389269    14.542769   0.71818198   -2.5390294  -0.23356087 -0.099091707 
   72400        0.005    1.2861206 -0.023407345        24800    14.312735    1.9285869    12.384148    14.541121   0.72409721   -2.5475822  -0.23352517 -0.099961943 
   72500        0.005    1.2739489  0.042732418        24800    14.303244    1.9103349    12.392909    14.555425   0.70892197   -2.5394525  -0.23440513 -0.097579519 
   72600        0.005    1.2848686 -0.048264968        24800     14.30954    1.9267095    12.382831    14.539868   0.71997072   -2.5572904   -0.2212018 -0.098515536 
   72700        0.005    1.2791484  0.039739877        24800    14.321767    1.9181319    12.403635    14.531979   0.72499637   -2.5322404  -0.22410796 -0.096991501 
   72800        0.005    1.2807973 -0.029612643        24800    14.302669    1.9206045    12.382064    14.520702   0.70147062   -2.5105524  -0.23137925 -0.098177001 
   72900        0.005    1.2803061 -0.014070246        24800    14.294803    1.9198679    12.374935    14.524908   0.68550909   -2.5034103  -0.23494449 -0.097126641 
   73000        0.005    1.2921424 -0.0012218822        24800    14.309764    1.9376169    12.372148    14.520398   0.71577026   -2.5403677  -0.22656118  -0.09709198 
   73100        0.005    1.2715244  0.013949338        24800    14.302194    1.9066994    12.395495    14.525038   0.70582456   -2.5112358  -0.22730525 -0.096826496 
   73200        0.005    1.2760266 -0.0091671657        24800    14.293986    1.9134506    12.380535    14.536707   0.70659042   -2.5387698  -0.22764531 -0.096347224 
   73300        0.005    1.2687036  0.013629753        24800    14.290617    1.9024694    12.388148    14.516931   0.72249216   -2.5205697  -0.23171189 -0.098993158 
   73400        0.005    1.2611713 -0.0064914185        24800    14.286497    1.8911744    12.395323    14.497751   0.72222131    -2.502116  -0.22315133 -0.099382581 
   73500        0.005    1.2722009 0.0022521395        24800    14.281201    1.9077138    12.373487    14.527542   0.71341592   -2.5306338  -0.23463277  -0.10220404 
   73600        0.005    1.2608088 0.0091469281        24800    14.279579     1.890631    12.388948    14.504699    0.7053928   -2.4996833  -0.22224956  -0.09921045 
   73700        0.005    1.2681212 -0.033569546        24800    14.276582    1.9015961    12.374986    14.507555   0.70528663   -2.5110349  -0.22949822 -0.097322378 
   73800        0.005    1.2838683 0.0030828254        24800    14.273964    1.9252096    12.348755    14.531726   0.69917747   -2.5567794  -0.23293628 -0.092433069 
   73900        0.005     1.277779 -0.017688242        24800    14.286835    1.9160784    12.370757    14.516443   0.69827139   -2.5308614  -0.22028776 -0.092808857 
   74000        0.005    1.2801214  0.038596886        24800    14.272945     1.919591    12.353354    14.506364   0.67980401   -2.5019293  -0.23480456  -0.09607918 
   74100        0.005    1.2868697 -0.024839894        24800    14.274925    1.9297103    12.345215    14.544998   0.69577473   -2.5622823  -0.23521616 -0.098059694 
   74200        0.005    1.2963792 -0.021846813        24800    14.281389    1.9439701    12.337419    14.511597    0.7105869   -2.5511228  -0.23455936 -0.099081993 
   74300        0.005    1.2862906 -0.018007567        24800    14.278127    1.9288418    12.349286    14.509717   0.70779932   -2.5416586  -0.22570743  -0.10086468 
   74400        0.005    1.2647267 -0.044888037        24800    14.268459    1.8965059    12.371953    14.515235   0.68905448   -2.4967542  -0.23487636  -0.10070551 
   74500        0.005    1.2884662 -0.051251094        24800    14.258949    1.9321043    12.326844    14.525175   0.70260997   -2.5673295  -0.23498253 -0.098628085 
   74600        0.005    1.3079418 -0.030636834        24800    14.258883    1.9613087    12.297574    14.518689    0.7019607   -2.5911639   -0.2306337  -0.10127797 
   74700        0.005     1.279681  -0.03045045        24800    14.254127    1.9189306    12.335197    14.541803   0.67689906   -2.5493768   -0.2311536  -0.10297517 
   74800        0.005    1.2774066 -0.022131869        24800    14.247288    1.9155199    12.331768    14.538989   0.69040203   -2.5620388  -0.23269909  -0.10288601 
   74900        0.005    1.2848257 -0.039131023        24800    14.235218    1.9266452    12.308573    14.545951   0.68140978   -2.5878806  -0.23100159  -0.09990571 
   75000        0.005    1.2800219 -0.032216433        24800    14.242584    1.9194418    12.323142    14.515109    0.7071894   -2.5713022  -0.23149108 -0.096363281 
   75100        0.005    1.2678127  0.022335997        24800    14.244451    1.9011335    12.343318    14.532755   0.68498475    -2.541681  -0.23639644 -0.096344811 
   75200        0.005    1.2546649 -0.064595381        24800    14.244496    1.8814179    12.363078    14.563454   0.66809404   -2.5437059  -0.22973353 -0.095030203 
   75300        0.005    1.2970403 -0.053505782        24800    14.226299    1.9449614    12.281338    14.521731   0.65836812   -2.5720255  -0.22866624 -0.098070008 
   75400        0.005    1.2911427 -0.054919774        24800    14.229094    1.9361178    12.292977    14.528186   0.67886535   -2.5803046  -0.23462328 -0.099147069 
   75500        0.005     1.300905 -0.045573842        24800     14.23189    1.9507567    12.281133    14.511145   0.68717107   -2.5837836  -0.23482794 -0.098571737 
   75600        0.005    1.2797664 0.0031470536        24800    14.235038    1.9190585     12.31598    14.519991   0.70082433   -2.5685114  -0.23612441  -0.10020003 
   75700        0.005    1.2774147 -0.022559985        24800    14.230045    1.9155321    12.314513    14.540525   0.69558558   -2.5895268  -0.23047686   -0.1015936 
   75800        0.005    1.2833116 -0.049379276        24800    14.217411    1.9243747    12.293037    14.550287   0.67783248   -2.5997213  -0.23507628  -0.10028526 
   75900        0.005    1.2985324 -0.017434097        24800    14.224837    1.9471989    12.277638    14.526361   0.69626323   -2.6097891  -0.23298263  -0.10221502 
   76000        0.005     1.254904 -0.030984102        24800    14.219139    1.8817764    12.337363    14.554226   0.68518015   -2.5714821  -0.23093764 -0.099623716 
   76100        0.005    1.2753011 -0.051796572        24800     14.22663    1.9123627    12.314267    14.514978   0.69628954   -2.5630834  -0.23422177 -0.099695937 
   76200        0.005    1.2538889 -0.020833984        24800    14.218627    1.8802543    12.338372    14.525414    0.6950937   -2.5598549  -0.22449663   -0.0977844 
   76300        0.005     1.259947 -0.011238888        24800    14.217517    1.8893386    12.328178    14.548011   0.67950693   -2.5530206   -0.2464009 -0.099917882 
   76400        0.005    1.2985285  0.010892761        24800    14.225631    1.9471931    12.278437    14.519043   0.69901942     -2.60085  -0.23488633  -0.10388852 
   76500        0.005    1.2906172  0.024004929        24800    14.228039    1.9353297    12.292709    14.513674   0.71094345   -2.5907141  -0.23566212  -0.10553254 
   76600        0.005    1.2649965 -0.040256108        24800    14.227843    1.8969106    12.330932    14.534773   0.72300906   -2.5848839  -0.23521945  -0.10674603 
   76700        0.005    1.2503795  0.026504246        24800    14.208258    1.8749918    12.333267    14.516336   0.69650803   -2.5399749  -0.23717983  -0.10242294 
   76800        0.005    1.2724484 0.00089102468        24800    14.214337     1.908085    12.306252    14.502757    0.7034346   -2.5615865  -0.23436029  -0.10399342 
   76900        0.005    1.2725817  0.027717165        24800    14.205369    1.9082848    12.297084    14.508472    0.7112091   -2.5816748   -0.2377788   -0.1031437 
   77000        0.005    1.2617046 0.0048388675        24800    14.199107    1.8919743    12.307132    14.541457   0.70467399   -2.6035423   -0.2334895  -0.10196692 
   77100        0.005    1.2885363  -0.03642114        24800    14.195645    1.9322094    12.263436    14.525247   0.68017624   -2.5983495  -0.24156648  -0.10207106 
   77200        0.005    1.3001028 -0.019770337        24800    14.184222    1.9495538    12.234668    14.530002   0.68503508   -2.6446116  -0.23437842  -0.10137961 
   77300        0.005    1.2958902 -0.0099734337        24800    14.180455    1.9432369    12.237218    14.511244   0.67530396   -2.6123096  -0.23412434  -0.10289602 
   77400        0.005    1.2840956 -0.013348399        24800    14.188812    1.9255503    12.263262    14.524089     0.698358   -2.6394843  -0.21803152  -0.10166917 
   77500        0.005     1.291348  0.012104181        24800    14.187001    1.9364256    12.250576    14.529718   0.69810328    -2.653702  -0.22254935  -0.10099384 
   77600        0.005    1.3016632 -0.035397158        24800    14.187756    1.9518936    12.235863    14.516865   0.69385763   -2.6398906  -0.23394374  -0.10102508 
   77700        0.005     1.256538 -0.057817456        24800    14.191558    1.8842267    12.307331    14.526599   0.71289385   -2.5963594  -0.23483983  -0.10096221 
   77800        0.005     1.263657  0.014926668        24800    14.178212    1.8949019     12.28331    14.488631   0.70249902   -2.5739156  -0.23287589  -0.10102871 
   77900        0.005    1.2645772 -0.041007545        24800    14.178356    1.8962818    12.282074    14.496771   0.70193675   -2.5763621  -0.23969681   -0.1005748 
   78000        0.005     1.249307 0.0017994819        24800    14.161867    1.8733835    12.288483    14.519505   0.69192725   -2.5772096  -0.24411216  -0.10162729 
   78100        0.005    1.2605219 -0.043644793        24800    14.151895    1.8902007    12.261694    14.509395   0.68627374   -2.6027778  -0.23110285  -0.10009417 
   78200        0.005    1.2718073 -0.014821232        24800    14.159298    1.9071236    12.252175    14.519446   0.68733782   -2.6230752  -0.23268958 -0.098844564 
   78300        0.005    1.2746345 -0.049299606        24800    14.160875    1.9113631    12.249512     14.51766   0.68315132   -2.6150793  -0.23742447 -0.098795185 
   78400        0.005    1.2560566 -0.038810627        24800    14.158363    1.8835049    12.274858    14.522214   0.68211875   -2.6023907  -0.23012973 -0.096954202 
   78500        0.005    1.2725105  0.015485858        24800    14.153634    1.9081781    12.245456    14.500296   0.68611294     -2.61404  -0.22863491 -0.098277678 
   78600        0.005    1.2852967 -0.073723974        24800    14.160031    1.9273514    12.232679    14.533536   0.68052915   -2.6557013  -0.23058719 -0.095097696 
   78700        0.005    1.2586505 -0.015181145        24800    14.173886    1.8873945    12.286492    14.545814   0.70577114   -2.6507313  -0.22153597  -0.09282658 
   78800        0.005    1.2809259 -0.031545212        24800    14.146602    1.9207972    12.225804    14.533686   0.66989512   -2.6518352  -0.22901521 -0.096925834 
   78900        0.005    1.2979472 -0.031987033        24800    14.157167    1.9463214    12.210845    14.506629   0.69374603   -2.6669199  -0.22350549 -0.099104786 
   79000        0.005    1.2853093  0.023653818        24800    14.155075    1.9273704    12.227704    14.516336   0.68391114   -2.6427552   -0.2309804 -0.098807775 
   79100        0.005     1.273062 -0.040614318        24800    14.146089     1.909005    12.237084    14.544968   0.67479846   -2.6429681  -0.23820726   -0.1015079 
   79200        0.005    1.2966758  -0.01510593        24800    14.142819    1.9444148    12.198404    14.500372   0.67761148   -2.6434308  -0.23378368  -0.10236483 
   79300        0.005    1.2828689 -0.014885023        24800    14.143874    1.9237108    12.220163    14.526027   0.67802069   -2.6414723  -0.24044814  -0.10196426 
   79400        0.005    1.2695621  0.016955071        24800    14.140617    1.9037569     12.23686    14.510166   0.68717182    -2.619553  -0.23913973  -0.10178527 
   79500        0.005    1.2817438 -0.0037162845        24800     14.15286    1.9220237    12.230836     14.51663   0.67883631   -2.6285623   -0.2348621  -0.10120639 
   79600        0.005    1.2868701 0.0063089744        24800    14.143703    1.9297108    12.213992    14.493914   0.69312167   -2.6423422   -0.2301485  -0.10055331 
   79700        0.005    1.2859019 -0.007560594        24800    14.157147     1.928259    12.228888    14.513655   0.69119945   -2.6444527   -0.2312261   -0.1002869 
   79800        0.005    1.2751032 -0.017769626        24800    14.160481    1.9120659    12.248415    14.530014   0.71675455   -2.6714796  -0.22837354 -0.098501008 
   79900        0.005    1.2580992 -0.033923371        24800    14.143461    1.8865677    12.256893    14.508071   0.71077132    -2.628644  -0.23557971  -0.09772515 
   80000        0.005    1.2656184 0.00011304011        24800    14.155159    1.8978431    12.257316    14.486811   0.71231669   -2.6113385  -0.23185492 -0.098618464 
   80100        0.005    1.2661712 -0.033507227        24800    14.148392    1.8986721     12.24972    14.516854   0.68940289   -2.6303929  -0.22848928 -0.097655043 
   80200        0.005    1.2575444 -0.024245105        24800    14.128277    1.8857358    12.242541    14.506278   0.68128032    -2.619767  -0.22815407 -0.097095913 
   80300        0.005    1.2565891 -0.032718882        24800    14.134255    1.8843034    12.249952    14.506219   0.69723325   -2.6207689  -0.23593266 -0.096799475 
   80400        0.005     1.240052 -0.0097799766        24800     14.11694    1.8595053    12.257435    14.511906   0.69614951   -2.6173347  -0.23636002 -0.096926121 
   80500        0.005    1.2488657 -0.060895169        24800    14.123495    1.8727219    12.250773    14.522365   0.70654231   -2.6386206  -0.24227441 -0.097239527 
   80600        0.005    1.2765045 -0.0089859848        24800    14.123282    1.9141672    12.209114    14.485121   0.70473764   -2.6431196  -0.24206903 -0.095555475 
   80700        0.005    1.2768192  0.026008084        24800    14.121215    1.9146391    12.206576    14.509827   0.70556754   -2.6676466  -0.24741504 -0.093756946 
   80800        0.005    1.2478226 -0.023635334        24800    14.111358    1.8711577      12.2402    14.512403   0.69737836   -2.6359897   -0.2377317 -0.095859941 
   80900        0.005    1.2523848 -0.071636068        24800    14.103219    1.8779988     12.22522    14.496889   0.67945371   -2.6277579  -0.22639165 -0.096973354 
   81000        0.005     1.250492 0.0018429294        24800    14.116327    1.8751605    12.241167    14.496683   0.70897836   -2.6443945  -0.22577686 -0.094322971 
   81100        0.005    1.2547887 -0.0096978554        24800    14.116289    1.8816036    12.234686    14.498476   0.70763217   -2.6551269  -0.22282387 -0.093471874 
   81200        0.005    1.2522942 -0.005329084        24800    14.111428     1.877863    12.233565    14.485684   0.72245752   -2.6487014  -0.22865036 -0.097224327 
   81300        0.005    1.2520689 0.0021618395        24800    14.122661    1.8775252    12.245136    14.505129   0.73039838   -2.6564205  -0.23446561 -0.099505215 
   81400        0.005    1.2409737 -0.032982425        24800    14.116319    1.8608874    12.255431    14.488065   0.72558754   -2.6282203  -0.22945579  -0.10054564 
   81500        0.005    1.2516353 -0.015569856        24800    14.112619     1.876875    12.235744    14.494144   0.71465987   -2.6413193  -0.23204489 -0.099695491 
   81600        0.005    1.2869745 0.0030291453        24800    14.109593    1.9298674    12.179726    14.511249   0.70007025   -2.6944527  -0.23872677 -0.098414266 
   81700        0.005    1.2655708 -0.010864037        24800    14.123913    1.8977717    12.226141    14.513395   0.72590015   -2.6764848  -0.23589785  -0.10077119 
   81800        0.005    1.2741805 -0.020261279        24800    14.122082    1.9106824    12.211399    14.521188   0.72285868   -2.6873393   -0.2458111 -0.099497115 
   81900        0.005    1.2776338 0.0055343923        24800    14.114121    1.9158606     12.19826     14.50844   0.72372614   -2.6994198  -0.23351782  -0.10096819 
   82000        0.005    1.2618732 -0.033213765        24800     14.10406     1.892227    12.211833    14.514933   0.69996944   -2.6606008   -0.2413021  -0.10116666 
   82100        0.005    1.2608067 0.0019711099        24800    14.094679    1.8906278    12.204051      14.5083   0.69607315   -2.6650163  -0.23808841 -0.097217197 
   82200        0.005    1.2543924 -0.012614713        24800    14.078839    1.8810094    12.197829    14.529748   0.70606069   -2.7032978  -0.23734436 -0.097337021 
   82300        0.005    1.2550602 -0.017258965        24800    14.090701    1.8820106     12.20869    14.531672   0.71762261    -2.698204  -0.24276962 -0.099630931 
   82400        0.005    1.2896117  0.014352066        24800    14.084412    1.9338219     12.15059    14.505818   0.70201037   -2.7180714  -0.23951701 -0.099650378 
   82500        0.005    1.2838147 0.0037109561        24800    14.077854    1.9251292    12.152725    14.521158   0.67691564     -2.70299  -0.24165642  -0.10070259 
   82600        0.005    1.2576251 -0.010142952        24800    14.062722    1.8858569    12.176865     14.51553   0.64937932   -2.6540222  -0.23225201  -0.10177024 
   82700        0.005    1.2331076 0.0039560441        24800    14.060331    1.8490919    12.211239    14.507861   0.67552424   -2.6299352  -0.24156687  -0.10064419 
   82800        0.005    1.2610702 -0.028973101        24800    14.066722    1.8910229    12.175699    14.525996   0.67675269    -2.687394   -0.2395226  -0.10013271 
   82900        0.005     1.249883 -0.018445421        24800    14.072436    1.8742473    12.198188    14.519515   0.69879328   -2.6791967   -0.2426389 -0.098284663 
   83000        0.005    1.2600422 -0.020085555        24800     14.07987    1.8894813    12.190389    14.500624   0.71342202   -2.6880154  -0.23985713 -0.095785009 
   83100        0.005    1.2430296  0.014426986        24800    14.072312    1.8639704    12.208341    14.498927   0.70690131   -2.6718195  -0.22950896 -0.096158493 
   83200        0.005     1.255131 -0.026935107        24800    14.072421    1.8821169    12.190304    14.503374   0.70375924   -2.6880637  -0.23153061 -0.097235134 
   83300        0.005     1.270952 -0.030829332        24800    14.069573    1.9058411    12.163732    14.513892   0.69902854    -2.703155  -0.24589965  -0.10013414 
   83400        0.005    1.2762342 -0.044126387        24800    14.069567    1.9137619    12.155805    14.484842   0.71050221    -2.705898  -0.23382583 -0.099815704 
   83500        0.005    1.2443571 -0.011948274        24800    14.082508     1.865961    12.216547    14.507585   0.71437716   -2.6642627  -0.23871043  -0.10244248 
   83600        0.005    1.2300975 -0.024431743        24800    14.072942    1.8445782    12.228364    14.518848   0.71541507   -2.6618083  -0.24262746   -0.1014631 
   83700        0.005    1.2338043 -0.029603895        24800    14.061972    1.8501367    12.211836    14.508481   0.70584034   -2.6621289  -0.23931667  -0.10104045 
   83800        0.005    1.2215066  0.008089664        24800    14.059619    1.8316958    12.227924    14.506955   0.68729171   -2.6267274  -0.23809023  -0.10150535 
   83900        0.005    1.2266342 -0.040801291        24800    14.057908    1.8393849    12.218523    14.492911   0.69603076   -2.6400411  -0.22720039  -0.10317732 
   84000        0.005    1.2589732 -0.028104164        24800    14.062254    1.8878784    12.174375    14.508046   0.70251238   -2.6937162  -0.23955552  -0.10291108 
   84100        0.005    1.2553068 -0.049267019        24800    14.070713    1.8823805    12.188333    14.505388   0.71653231   -2.6895383  -0.24166453  -0.10238524 
   84200        0.005    1.2630112 -0.031927654        24800    14.065529    1.8939334    12.171596    14.505689   0.71728158   -2.7004596  -0.24862428  -0.10229124 
   84300        0.005    1.2268969 -0.024552223        24800    14.061727    1.8397787    12.221948     14.50378   0.70858299    -2.661095  -0.22949722 -0.099822521 
   84400        0.005    1.2585951 -0.033407476        24800    14.062365    1.8873113    12.175054    14.517544   0.69398717   -2.6921957   -0.2430058  -0.10127596 
   84500        0.005    1.2815439 -0.040167492        24800    14.055737     1.921724    12.134013    14.504721   0.69762756   -2.7247282  -0.24063482  -0.10297229 
   84600        0.005     1.255824 -0.0031322321        24800    14.050937     1.883156    12.167781    14.502951   0.69231161   -2.6939297  -0.23203046  -0.10152077 
   84700        0.005    1.2526897 -0.022978827        24800    14.047638    1.8784561    12.169182    14.485547   0.70636678    -2.690876  -0.23203428 -0.099821069 
   84800        0.005    1.2570576  0.037024609        24800    14.041533    1.8850058    12.156527    14.483068   0.69621611   -2.6935775  -0.23214476 -0.097034629 
   84900        0.005    1.2571587  0.016047846        24800     14.03981    1.8851575    12.154653    14.504914   0.70246705   -2.7198697  -0.23507059 -0.097788004 
   85000        0.005    1.2439569 -0.0003038833        24800    14.033733    1.8653609    12.168373    14.494594   0.70502877   -2.6904808  -0.24188437 -0.098884897 
   85100        0.005    1.2465718 0.0079989595        24800    14.038778     1.869282    12.169496    14.519496   0.69917603   -2.7077409  -0.24096272  -0.10047217 
   85200        0.005    1.2409555 -0.020651896        24800     14.03511    1.8608602     12.17425       14.528    0.6906766   -2.7048713  -0.24194442 -0.097610873 
   85300        0.005    1.2387279 -0.0047973574        24800    14.016861    1.8575197    12.159341    14.500364   0.70033154   -2.7168858  -0.22847888 -0.095989338 
   85400        0.005    1.2345174 -0.00022883783        24800    14.030838     1.851206    12.179632    14.490702   0.71090469   -2.6828347   -0.2408147 -0.098324927 
   85500        0.005    1.2120618 -0.026242858        24800    14.014318     1.817533    12.196785    14.530642   0.67911034   -2.6816762   -0.2312442  -0.10004759 
   85600        0.005    1.2426589 -0.049022569        24800    14.017485    1.8634144    12.154071    14.485068    0.6826792    -2.686936  -0.22939279 -0.097347673 
   85700        0.005    1.2495216  0.023530172        24800    14.014937    1.8737053    12.141232    14.501261   0.67597177   -2.6970317  -0.23840574    -0.100564 
   85800        0.005    1.2583513 -0.010331921        24800    14.010208    1.8869458    12.123262    14.517729   0.67934028   -2.7301506  -0.24219886  -0.10145851 
   85900        0.005    1.2548136 0.0016184955        24800    14.007002    1.8816408    12.125361    14.496857   0.68761957   -2.7150953  -0.24566511 -0.098354861 
   86000        0.005     1.260917 0.0012218117        24800    14.013636    1.8907932    12.122843    14.495794   0.69914298   -2.7320999  -0.24115253 -0.098841835 
   86100        0.005    1.2448993  0.012212877        24800    13.993486     1.866774    12.126712    14.519985   0.68311325   -2.7403133  -0.23798492 -0.098088263 
   86200        0.005    1.2168474 0.0069367648        24800    14.002745    1.8247091    12.178036    14.494018   0.70081468   -2.6773648  -0.24097134 -0.098460222 
   86300        0.005    1.2175806 -0.00043713434        24800    13.992903    1.8258086    12.167094    14.526913    0.6999256   -2.7241345  -0.23805641 -0.097553261 
   86400        0.005    1.2707271 0.0064070548        24800    13.994683    1.9055039    12.089179    14.495955   0.70894499   -2.7753859  -0.24250827 -0.097826454 
   86500        0.005    1.2340156 -0.035853053        24800    14.001391    1.8504535    12.150937    14.509552   0.69855932   -2.7252619  -0.23738398 -0.094528104 
   86600        0.005    1.2321953 -0.060037856        24800    14.003783    1.8477239    12.156059    14.489927   0.71056789   -2.7144735  -0.23675565  -0.09320695 
   86700        0.005    1.2072719 0.0081806936        24800    13.996417    1.8103502    12.186066    14.484948   0.68949498   -2.6677031  -0.22488776 -0.095786146 
   86800        0.005    1.2438101 -0.027550772        24800    13.996414    1.8651407    12.131273    14.495136   0.70554011   -2.7377467  -0.23401545 -0.097640386 
   86900        0.005    1.2472037   -0.0154762        24800    13.986952    1.8702296    12.116723    14.485934   0.69069992   -2.7194761  -0.24078959 -0.099646104 
   87000        0.005      1.25747 -0.024103821        24800    13.991029    1.8856243    12.105405    14.485803   0.71161611   -2.7512282  -0.24052601  -0.10025973 
   87100        0.005    1.2356132  0.034643595        24800    13.987497    1.8528492    12.134648    14.494028    0.6960389   -2.7098138  -0.24590636 -0.099698415 
   87200        0.005    1.2652531  0.019445129        24800    13.987737    1.8972953    12.090442    14.500562   0.69854083   -2.7573643  -0.25230366 -0.098993181 
   87300        0.005    1.2415284 -0.010569332        24800    13.988526    1.8617193    12.126807    14.499153   0.69857631    -2.723624  -0.24808219 -0.099216169 
   87400        0.005    1.2425453 -0.017219213        24800    13.971495    1.8632441    12.108251     14.49426   0.67760263   -2.7275665  -0.23659071 -0.099453952 
   87500        0.005    1.2198673 -0.011602323        24800    13.968669    1.8292376    12.139431      14.5155   0.68239841    -2.715189  -0.24569725 -0.097580834 
   87600        0.005     1.202965 4.7037875e-05        24800    13.964749    1.8038919    12.160857    14.493329    0.6930728   -2.6986206  -0.22989027 -0.097033339 
   87700        0.005    1.2233086 0.0024866038        24800    13.974864     1.834398    12.140466    14.477844   0.70473705   -2.7043183  -0.23852037 -0.099276788 
   87800        0.005    1.2321691 -0.025794594        24800    13.980279    1.8476846    12.132594    14.515568   0.71134175   -2.7489799  -0.24700176 -0.098334325 
   87900        0.005    1.2294114 -0.033543091        24800    13.977009    1.8435493     12.13346    14.485939   0.69885912   -2.7091065  -0.24474454 -0.097487086 
   88000        0.005    1.2238036  -0.03832564        24800    13.971922    1.8351402    12.136782    14.497694   0.69747084   -2.7176318  -0.24146487 -0.099287131 
   88100        0.005    1.2427019 -0.038916806        24800    13.974547     1.863479    12.111068    14.494963   0.69599392   -2.7435401  -0.23777879 -0.098569369 
   88200        0.005    1.2479062 -0.026361729        24800    13.972704     1.871283    12.101421    14.503133   0.69980963   -2.7679306  -0.23650049 -0.097091217 
   88300        0.005    1.2362814 -0.0028439727        24800    13.980194    1.8538511    12.126343    14.497086   0.70297053   -2.7313009  -0.24520605 -0.097206203 
   88400        0.005    1.2192001 -0.020512392        24800    13.974093    1.8282371    12.145856     14.49138   0.70769226   -2.7166785  -0.23563166  -0.10090623 
   88500        0.005    1.2346106 -0.036807305        24800    13.952348    1.8513457    12.101002    14.476116   0.69521814   -2.7334338   -0.2369702 -0.099927788 
   88600        0.005    1.2107963 -0.0043125093        24800    13.960412    1.8156353    12.144777    14.487573   0.71052315   -2.7201603  -0.23207028  -0.10108903 
   88700        0.005    1.2078241 -0.060684527        24800    13.958231    1.8111784    12.147053    14.503615   0.68636927   -2.7073223  -0.23422502  -0.10138406 
   88800        0.005    1.2258995 -0.016761274        24800    13.947473    1.8382831     12.10919    14.485382   0.68419753   -2.7169395  -0.23996573  -0.10348427 
   88900        0.005     1.244793  0.045027376        24800    13.943319    1.8666146    12.076704    14.490956   0.67153516   -2.7362617  -0.24322768  -0.10629702 
   89000        0.005    1.2387604 -0.036192876        24800    13.944616    1.8575686    12.087047     14.47917   0.67902719   -2.7152221  -0.24923291  -0.10669506 
   89100        0.005    1.2167319 -0.018403842        24800    13.933117     1.824536    12.108581    14.490697   0.69276892   -2.7297418  -0.23872267  -0.10642053 
   89200        0.005    1.2526468 0.0042098476        24800    13.931314    1.8783917    12.052922     14.48975   0.69172898   -2.7713463  -0.25024425  -0.10696594 
   89300        0.005    1.2338881 -0.002838213        24800    13.925739    1.8502624    12.075477    14.514032   0.67285099   -2.7569682  -0.24795713  -0.10648102 
   89400        0.005    1.2297093  0.016843569        24800    13.933993     1.843996    12.089997    14.514111   0.67403935   -2.7472191  -0.24566881  -0.10526596 
   89500        0.005    1.2119332  0.020938679        24800    13.935312    1.8173401    12.117972    14.487994   0.70143576   -2.7308064  -0.23662642  -0.10402489 
   89600        0.005    1.2263066 -0.014873702        24800    13.928173    1.8388936     12.08928    14.482566   0.70292213   -2.7455672  -0.24540162  -0.10523948 
   89700        0.005    1.2145845 -0.081201459        24800    13.926639    1.8213158    12.105323    14.491843   0.69179948   -2.7341719  -0.23957971  -0.10456733 
   89800        0.005    1.2407302 -0.022557422        24800    13.914116    1.8605223    12.053593    14.489739   0.67681641    -2.758063  -0.25025546  -0.10464362 
   89900        0.005    1.2200437 -0.0064533903        24800    13.931374    1.8295021    12.101872    14.505342   0.68824448   -2.7504296  -0.23752707  -0.10375721 
   90000        0.005    1.2248147 0.0040336678        24800     13.92083    1.8366563    12.084174    14.477886   0.68951446   -2.7440718  -0.23678252   -0.1023723 
   90100        0.005    1.2232432 -0.00067906201        24800    13.923724    1.8342999    12.089424    14.502533     0.682901   -2.7529753  -0.24003751   -0.1029977 
   90200        0.005    1.2300234 0.0042806009        24800     13.91241    1.8444671    12.067943    14.509879    0.6861697   -2.7739892  -0.25025936  -0.10385711 
   90300        0.005    1.2656828 -0.013267966        24800    13.921913    1.8979397    12.023973    14.483066   0.70178359   -2.8056215  -0.25106086  -0.10419379 
   90400        0.005    1.2305714 -0.013937438        24800    13.923272    1.8452889    12.077983    14.491837   0.70191289   -2.7565219  -0.25412675  -0.10511848 
   90500        0.005    1.1954621 -0.061382657        24800    13.929931    1.7926411     12.13729    14.511779   0.69769078     -2.72717  -0.24024379  -0.10476556 
   90600        0.005    1.2302523 -0.0074568435        24800    13.929405    1.8448103    12.084595    14.511714    0.6975249   -2.7788401   -0.2415708  -0.10423269 
   90700        0.005    1.2292856 -0.047614101        24800    13.924911    1.8433607    12.081551    14.524002   0.69252216   -2.7889957  -0.24388208  -0.10209551 
   90800        0.005    1.2384701 0.0083410454        24800    13.916989    1.8571332    12.059856    14.496427   0.68585193   -2.7741085  -0.24698461  -0.10133036 
   90900        0.005    1.2517545 -0.024262681        24800    13.912039    1.8770536    12.034986    14.479476   0.68285731    -2.769765  -0.25542215  -0.10216094 
   91000        0.005    1.2330687 -0.041545809        24800    13.908771    1.8490335    12.059737    14.498887   0.67024143   -2.7619642  -0.24679197  -0.10063547 
   91100        0.005     1.220444 -0.036103854        24800    13.911425    1.8301024    12.081323    14.520308   0.68126559   -2.7881888  -0.23407898 -0.097983236 
   91200        0.005    1.2099612  0.007346123        24800    13.908769    1.8143831    12.094386    14.499914   0.68502498   -2.7497774  -0.24109361 -0.099681586 
   91300        0.005    1.2179779 -0.0069607722        24800     13.90549    1.8264043    12.079085    14.492124   0.67099744   -2.7386215  -0.24393407  -0.10148094 
   91400        0.005    1.2045552 -0.021246629        24800    13.907352    1.8062765    12.101075    14.505263   0.68128049   -2.7384804  -0.24649629  -0.10049145 
   91500        0.005    1.1986236 -0.015258649        24800    13.891495    1.7973818    12.094113    14.510551   0.67702233   -2.7602235  -0.23023188    -0.103005 
   91600        0.005    1.2070483  0.033888399        24800    13.885001    1.8100149    12.074986    14.497056    0.6703223   -2.7521845  -0.23666202  -0.10354598 
   91700        0.005    1.1982943  0.016167923        24800    13.892488     1.796888      12.0956    14.495081   0.68222368   -2.7337621  -0.24746298  -0.10048051 
   91800        0.005    1.2131903  0.028961845        24800    13.895823    1.8192251    12.076598    14.490448   0.69772863   -2.7633914   -0.2479878  -0.10019906 
   91900        0.005    1.2323353 -0.002697237        24800    13.883865    1.8479338    12.035931    14.488822   0.68056356   -2.7844366  -0.24828131   -0.1007365 
   92000        0.005    1.2224039 -0.026456505        24800    13.892351    1.8330412     12.05931    14.500065   0.66940582   -2.7625867  -0.24321578  -0.10435849 
   92100        0.005    1.2185313 -0.050474264        24800    13.911686    1.8272343    12.084452    14.501065   0.70838261   -2.7746739  -0.24616167  -0.10416031 
   92200        0.005    1.2611123 -0.013329484        24800    13.896199    1.8910861    12.005113    14.457467    0.6836992   -2.7936488  -0.23972259  -0.10268244 
   92300        0.005    1.2303873  0.017455317        24800    13.896681    1.8450128    12.051669    14.494045   0.67521654     -2.77347  -0.24205427  -0.10206857 
   92400        0.005    1.2227847 -0.058704522        24800    13.876825    1.8336123    12.043212    14.508406   0.66057626   -2.7798379  -0.24239777   -0.1035344 
   92500        0.005    1.2272871  0.020239324        24800    13.882494    1.8403639     12.04213    14.473652   0.69704574   -2.7710911  -0.25357272  -0.10390397 
   92600        0.005    1.2147381 -0.033363874        24800    13.901397    1.8215462     12.07985    14.502202   0.71545578    -2.785848  -0.25177916  -0.10018044 
   92700        0.005     1.214631 -0.018907646        24800    13.901343    1.8213856    12.079957    14.506896   0.71113401   -2.7853395  -0.25184536   -0.1008878 
   92800        0.005    1.2032786  0.052828273        24800    13.892345    1.8043621    12.087983    14.503345    0.6949238   -2.7617204  -0.24718366  -0.10138195 
   92900        0.005    1.1942735 -0.031593531        24800    13.890564    1.7908587    12.099706    14.480011   0.69001048   -2.7212207  -0.24543249  -0.10366249 
   93000        0.005    1.2097408  0.010956845        24800    13.895783    1.8140525     12.08173    14.476014   0.69344081   -2.7471834  -0.23745568  -0.10308537 
   93100        0.005    1.2052579 -0.081878233        24800     13.89634    1.8073303     12.08901    14.493654   0.71380064   -2.7684567  -0.24824593   -0.1017422 
   93200        0.005    1.2093353 -0.0032282823        24800    13.893128    1.8134445    12.079684     14.47427   0.70271467   -2.7508458   -0.2448505  -0.10160482 
   93300        0.005    1.2129336 -0.018783946        24800    13.896781    1.8188403     12.07794    14.484743   0.69073074   -2.7499054   -0.2427194  -0.10490827 
   93400        0.005    1.1870936 -0.0089560953        24800    13.900372    1.7800921     12.12028    14.487517   0.70013265   -2.7216267  -0.24274678  -0.10299637 
   93500        0.005     1.189335 -0.022098691        24800    13.888808    1.7834533    12.105355    14.487522   0.69074622   -2.7279739  -0.24306315  -0.10187613 
   93600        0.005    1.2008843 -0.062181459        24800    13.886053    1.8007719    12.085281    14.480127   0.69538321   -2.7565691  -0.23480327 -0.098856085 
   93700        0.005    1.1930158  -0.03590131        24800    13.892661    1.7889728    12.103688    14.506784   0.70497415    -2.765342  -0.24144789  -0.10128035 
   93800        0.005    1.2422904 -0.038671908        24800    13.894145    1.8628619    12.031283    14.484384   0.68763128   -2.7871214  -0.25220366   -0.1014076 
   93900        0.005    1.2088858 -0.012145554        24800    13.886984    1.8127704    12.074213    14.492598   0.69538691   -2.7687531  -0.24164762  -0.10337065 
   94000        0.005    1.2484804  -0.01812776        24800    13.891376    1.8721441    12.019232    14.479515   0.68599264   -2.7916056  -0.25053803  -0.10413204 
   94100        0.005     1.229463 -0.017853902        24800    13.896481    1.8436267    12.052854    14.466043   0.69391783   -2.7686249  -0.23327871  -0.10520293 
   94200        0.005    1.2296236 0.0003415523        24800    13.883159    1.8438676    12.039292    14.499019   0.67418179   -2.7979591  -0.23429505  -0.10165494 
   94300        0.005    1.2426279 -0.023898514        24800    13.885813     1.863368    12.022445    14.487674   0.68661669   -2.8097533   -0.2409853  -0.10110666 
   94400        0.005    1.2381595 -0.028772207        24800    13.886806    1.8566674    12.030139    14.456921   0.69765461   -2.7775806  -0.24420971  -0.10264637 
   94500        0.005    1.2120485  0.023998947        24800    13.891904     1.817513    12.074391    14.476973   0.70447787   -2.7533685  -0.24953074  -0.10416017 
   94600        0.005    1.2038062 -0.029379737        24800    13.891619    1.8051534    12.086466    14.499898   0.69596325   -2.7592499  -0.24574231  -0.10440283 
   94700        0.005     1.224662 -0.035495844        24800    13.887414    1.8364275    12.050986    14.482769   0.68961842   -2.7728541  -0.24404087  -0.10450582 
   94800        0.005    1.2034442 0.00063966636        24800    13.894258    1.8046105    12.089647    14.490537   0.66732634   -2.7236872  -0.23992242  -0.10460652 
   94900        0.005    1.2002744  -0.03817852        24800    13.888459    1.7998573    12.088602    14.501867   0.66288854   -2.7359255  -0.23459902  -0.10562938 
   95000        0.005    1.2258978 -0.043341238        24800    13.879364    1.8382805    12.041083    14.521578   0.65889297   -2.7912406  -0.24286857  -0.10527896 
   95100        0.005     1.244509  0.030275979        24800    13.872121    1.8661888    12.005932    14.491534   0.67920418   -2.8159616   -0.2451022  -0.10374283 
   95200        0.005    1.2247749 -0.019781595        24800    13.876036    1.8365967     12.03944    14.490912   0.68853568   -2.8069577  -0.23501015 -0.098040643 
   95300        0.005    1.2200223 -0.035986283        24800    13.884614      1.82947    12.055144    14.499337   0.69360064   -2.7987355  -0.24240084 -0.096656699 
   95400        0.005    1.2446866 -0.014763631        24800    13.886115     1.866455     12.01966    14.469478   0.68903294   -2.8090981  -0.23212984 -0.097623434 
   95500        0.005    1.2307932  0.012487701        24800    13.885108    1.8456214    12.039487     14.49577   0.69773636   -2.8222346  -0.23479876 -0.096985956 
   95600        0.005    1.2141898 -0.0088410718        24800    13.878293    1.8207239    12.057569    14.478025   0.68225844   -2.7684789  -0.23769787 -0.096538145 
   95700        0.005    1.2136854 -0.028941684        24800    13.891965    1.8199676    12.071997    14.488349    0.7034664   -2.7924596  -0.23019628  -0.09716204 
   95800        0.005    1.2092884 -0.028877195        24800    13.878391    1.8133742    12.065017    14.493955   0.70769665   -2.7963444  -0.24205137 -0.098239052 
   95900        0.005    1.1897548 -0.038517224        24800    13.875244    1.7840827    12.091162    14.495154   0.70250739   -2.7703916  -0.23619244 -0.099915227 
   96000        0.005    1.2017505 -0.028843534        24800    13.868958    1.8020708    12.066887    14.499815   0.68829418   -2.7792528  -0.24350103 -0.098468809 
   96100        0.005    1.1923761 -0.028457835        24800    13.849728    1.7880136    12.061715    14.472423   0.67594911   -2.7512941  -0.23677714 -0.098586422 
   96200        0.005    1.2115292 -0.017201279        24800    13.854633    1.8167344    12.037899    14.461317    0.6821868   -2.7709805   -0.2333247  -0.10129973 
   96300        0.005    1.2095063  0.020602541        24800    13.852775    1.8137008    12.039074     14.48058   0.68298106    -2.770416  -0.25192328  -0.10214818 
   96400        0.005    1.1880721 -0.017078944        24800    13.853388    1.7815595    12.071829    14.489798   0.68813066    -2.761859  -0.24136958  -0.10287189 
   96500        0.005     1.213362 -0.022825875        24800    13.843531    1.8194827    12.024049    14.492167   0.67332211   -2.7937547  -0.24549067  -0.10219506 
   96600        0.005    1.1796286 -0.0017966803        24800    13.852208    1.7688981     12.08331    14.508019   0.68058294   -2.7588963  -0.24578765  -0.10060768 
   96700        0.005    1.1861168  0.008686513        24800    13.849713    1.7786274    12.071086    14.511518   0.67700292   -2.7664037  -0.25012152  -0.10090982 
   96800        0.005    1.2027338 -0.027683361        24800    13.853859    1.8035453    12.050314    14.507325   0.68041566   -2.7857589  -0.25064737  -0.10102076 
   96900        0.005    1.2088007 0.00080665088        24800    13.854982    1.8126428    12.042339    14.508391   0.68855166    -2.806475  -0.24841323 -0.099715496 
   97000        0.005    1.2071423  0.013388532        24800    13.845687     1.810156    12.035531    14.505998   0.69642479    -2.820762  -0.24455311   -0.1015774 
   97100        0.005    1.1979557 0.0076471456        24800    13.839858    1.7963803    12.043478    14.520473     0.681796   -2.8068452  -0.25067208  -0.10127388 
   97200        0.005    1.1977157  0.016243843        24800    13.848506    1.7960205    12.052485    14.494121   0.69320906   -2.7835895  -0.24912403  -0.10213114 
   97300        0.005    1.2090371 -0.044660061        24800     13.83935    1.8129973    12.026353     14.49412   0.67617215   -2.7939609  -0.24902767  -0.10095007 
   97400        0.005    1.2040243 0.00049628924        24800    13.835399    1.8054803    12.029919    14.481237   0.68842279     -2.79594  -0.24114342  -0.10265737 
   97500        0.005    1.2143467 -0.045628064        24800    13.848702    1.8209592    12.027743    14.469955   0.70226143   -2.7958904  -0.24834925  -0.10023332 
   97600        0.005    1.1924455 -0.021768648        24800    13.838874    1.7881176    12.050756    14.514816   0.70036925    -2.814789  -0.24845568  -0.10118415 
   97700        0.005    1.2131324 -0.021202207        24800     13.82804    1.8191383    12.008901    14.483893     0.689123   -2.8156315  -0.24607469  -0.10240892 
   97800        0.005    1.2076293   0.03497732        24800    13.830485    1.8108862    12.019599    14.483387   0.68688598   -2.8035472  -0.24452932  -0.10259758 
   97900        0.005    1.1967296 0.0075464862        24800     13.83689    1.7945418    12.042348    14.486074   0.68740104   -2.7799438   -0.2490718  -0.10211168 
   98000        0.005    1.2224968 -0.045379423        24800    13.852354    1.8331806    12.019174    14.490359   0.71394043   -2.8457295  -0.23768082  -0.10171534 
   98100        0.005    1.2141576 -0.0074927817        24800    13.840885    1.8206757    12.020209    14.496979   0.69725099   -2.8275124  -0.24799194 -0.098517217 
   98200        0.005     1.220085  0.015518989        24800    13.850288     1.829564    12.020724    14.490435   0.71132805   -2.8416427  -0.24106702 -0.098329813 
   98300        0.005    1.2105399 -0.051713972        24800    13.840763    1.8152508    12.025512    14.479404   0.69916911   -2.8123948  -0.23925121   -0.1014153 
   98400        0.005    1.1993239 -0.029372329        24800     13.85041     1.798432    12.051978    14.505749   0.71634122   -2.8295051  -0.24076452 -0.099843518 
   98500        0.005    1.2351665 -0.0092653915        24800    13.853593    1.8521793    12.001414    14.496886   0.71209985   -2.8577431  -0.24836559  -0.10146358 
   98600        0.005    1.2081383 -0.068470347        24800    13.833259    1.8116495     12.02161    14.501558   0.68371235   -2.8258751  -0.23939607 -0.098389293 
   98700        0.005    1.2101668 -0.039862745        24800    13.830556    1.8146913    12.015864    14.506394   0.68103692   -2.8248182  -0.24553525  -0.10121328 
   98800        0.005    1.2351878 0.0022802361        24800    13.818116    1.8522113    11.965905    14.488243   0.67241553   -2.8551403  -0.23564188  -0.10397149 
   98900        0.005    1.2141888 0.0016998035        24800    13.832084    1.8207225    12.011362    14.495722     0.692884   -2.8206929  -0.24986584  -0.10668488 
   99000        0.005    1.2284544 -0.027483804        24800    13.823863    1.8421143    11.981749    14.473001   0.67706113   -2.8127557   -0.2494014  -0.10615631 
   99100        0.005    1.2154154 -0.0068285851        24800    13.815112    1.8225618     11.99255    14.500348   0.67708058   -2.8340606  -0.24618669  -0.10463073 
   99200        0.005    1.1904714 -0.027080981        24800     13.82225    1.7851574    12.037092    14.500194   0.69388901   -2.8057672  -0.24950645  -0.10171722 
   99300        0.005    1.2072858 -0.026404375        24800    13.819066    1.8103712    12.008694    14.501689   0.69523531   -2.8462908  -0.24153265  -0.10040635 
   99400        0.005    1.2301319 -0.070858922        24800    13.826627    1.8446297    11.981997    14.480797    0.7006376   -2.8423017  -0.25930048 -0.097835899 
   99500        0.005    1.2084151 -0.080865609        24800    13.840777    1.8120645    12.028712    14.486712   0.71972919   -2.8315211  -0.25023724  -0.09597062 
   99600        0.005     1.186352 -0.023373983        24800    13.831789    1.7789801    12.052809    14.484853   0.70058054   -2.7919697  -0.24614181 -0.094512837 
   99700        0.005    1.2215085 -0.019688432        24800    13.828168    1.8316986    11.996469    14.489516   0.70128365   -2.8558419  -0.24238676 -0.096101838 
   99800        0.005    1.2393776  0.010988273        24800    13.819129     1.858494    11.960635    14.501911   0.69350489   -2.8857408  -0.24987867 -0.099161248 
   99900        0.005     1.242771 -0.0013873842        24800    13.824769    1.8635826    11.961187    14.505078   0.69718328   -2.8862602  -0.25729837 -0.097516479 
  100000        0.005    1.2150487  0.011384821        24800    13.823525    1.8220119    12.001514    14.516076   0.69019887   -2.8549491  -0.25101086 -0.098801181 
  100100        0.005    1.2335669 -0.053285944        24800    13.829779    1.8497807    11.979999    14.490112   0.69804813   -2.8599963  -0.25014687 -0.098018039 
  100200        0.005    1.2218779 -0.015231902        24800    13.809757    1.8322525    11.977504    14.503496    0.6866364    -2.864535   -0.2465443  -0.10154952 
  100300        0.005    1.1959377 -0.036255119        24800    13.805039    1.7933542    12.011685    14.487097   0.66813973   -2.7956223  -0.24582623  -0.10210331 
  100400        0.005    1.2111944 0.0033392761        24800    13.790655    1.8162322    11.974423    14.489586   0.65387979   -2.8169833  -0.25127029  -0.10078907 
  100434        0.005    1.2047053 -0.024159613        24800     13.79257    1.8065016    11.986068    14.493854   0.66141041   -2.8192213  -0.24891597   -0.1010586 
Loop time of 3597.11 on 4 procs for 100000 steps with 3248 atoms

Pair  time (%) = 703.887 (19.5681)
Bond  time (%) = 5.13614 (0.142785)
Kspce time (%) = 2649.12 (73.6456)
Neigh time (%) = 216.341 (6.01429)
Comm  time (%) = 5.14381 (0.142998)
Outpt time (%) = 0.437214 (0.0121546)
Other time (%) = 17.0526 (0.474064)

Nlocal:    812 ave 3099 max 17 min
Histogram: 3 0 0 0 0 0 0 0 0 1
Nghost:    1535.25 ave 5761 max 67 min
Histogram: 3 0 0 0 0 0 0 0 0 1
Neighs:    507346 ave 2.02742e+06 max 24 min
Histogram: 3 0 0 0 0 0 0 0 0 1

Total # of neighbors = 2029386
Ave neighs/atom = 624.811
Ave special neighs/atom = 1.38547
Neighbor list builds = 9967
Dangerous builds = 0
unfix 2
unfix 10
undump 1

#Run NVT Sampling
velocity not_substr scale 1.2
dielectric 		 1.0
fix 11 not_substr nve
fix 3 not_substr langevin 1.2 1.2 100.0 64324942
dump 2 polymers custom 1000 polymers.trj id type q xu yu zu
dump 55 polymers custom 1000 poly_wrap.trj id type q x y z
dump 3 ctr_ions custom 1000 ctrions.trj id type q x y z
dump 4 salt custom 1000 salt.trj id type q x y z
run 100000
PPPM initialization ...
  G vector (1/distance) = 0.460213
  grid = 24 24 120
  stencil order = 5
  estimated absolute RMS force accuracy = 9.396e-05
  estimated relative force accuracy = 9.396e-05
  using double precision FFTs
  3d grid and FFT values/proc = 77372 51840
Memory usage per processor = 9.96743 Mbytes
Step Dt Temp Press Volume TotEng KinEng PotEng E_bond E_angle E_vdwl E_coul E_long 
  100434        0.005    1.1260856 -0.034453085        24800    13.674677    1.6886084    11.986068    14.493854   0.66141041   -2.8192213  -0.24891597   -0.1010586 
  100500        0.005    1.1824023  0.038551817        24800    13.674902    1.7730574    11.901845    14.458446   0.64802854   -2.8627934  -0.24166141  -0.10017529 
  100600        0.005      1.16586 -0.020011305        24800    13.687359    1.7482516    11.939107    14.470788   0.67789974   -2.8622564   -0.2476958 -0.099628555 
  100700        0.005    1.1415495 -0.045646093        24800    13.698213     1.711797    11.986416    14.494271   0.69174261   -2.8484828  -0.25355962 -0.097555902 
  100800        0.005    1.1791902    -0.042312        24800     13.70256    1.7682407    11.934319    14.491609   0.69536147   -2.9008593  -0.25464488 -0.097147443 
  100900        0.005    1.1595301 -0.025273129        24800    13.695699    1.7387597    11.956939    14.507316   0.70045131   -2.8956722   -0.2535434  -0.10161279 
  101000        0.005    1.2002925  0.032934843        24800    13.713142    1.7998845    11.913257    14.492101   0.69729083   -2.9127382  -0.25883243  -0.10456402 
  101100        0.005     1.195849 -0.040428098        24800    13.698027    1.7932213    11.904805    14.512469    0.6806314   -2.9351513  -0.24740885  -0.10573462 
  101200        0.005    1.2250161 0.0064933598        24800    13.693299    1.8369584    11.856341    14.470224   0.69227529    -2.949967  -0.25086599  -0.10532541 
  101300        0.005    1.2004234 -0.046641508        24800    13.694058    1.8000807    11.893977    14.493228   0.70130885   -2.9461084  -0.25040064  -0.10405057 
  101400        0.005    1.1862493 -0.017603834        24800    13.696595    1.7788261    11.917768    14.495544   0.69876519   -2.9281895  -0.24523252  -0.10311838 
  101500        0.005    1.1795736 -0.014653298        24800    13.687417    1.7688157    11.918602    14.482838    0.6955568   -2.9076405  -0.25196174  -0.10019088 
  101600        0.005    1.1871745 -0.040362986        24800    13.689534    1.7802135    11.909321    14.488637   0.69870704   -2.9207999  -0.25589844  -0.10132444 
  101700        0.005    1.1979687  0.004154369        24800    13.685983    1.7963997    11.889583    14.467235   0.70709695   -2.9301277  -0.25248752  -0.10213302 
  101800        0.005     1.201899 -0.042612502        24800    13.674756    1.8022934    11.872462      14.4904   0.68505774   -2.9468657  -0.25208394  -0.10404536 
  101900        0.005    1.1956435  -0.02139924        24800    13.672701    1.7929131    11.879788    14.494777   0.67062967   -2.9243762  -0.25565784  -0.10558491 
  102000        0.005    1.1723006  0.027440869        24800    13.681646    1.7579095    11.923736    14.508179   0.67298243   -2.9105137  -0.24231833  -0.10459281 
  102100        0.005    1.2076023  0.040421277        24800    13.676274    1.8108458    11.865429    14.488772   0.66268245   -2.9255072  -0.25473648  -0.10578206 
  102200        0.005    1.1786915 0.0093287807        24800    13.676255    1.7674929    11.908762    14.460528   0.66602242   -2.8565878  -0.25460031  -0.10660068 
  102300        0.005    1.1678447 -0.056208003        24800    13.678106    1.7512278    11.926878    14.501104   0.66348425   -2.8833487  -0.24892525    -0.105437 
  102400        0.005    1.1947344 -0.030726917        24800    13.677978    1.7915499    11.886428    14.484238   0.67592109   -2.9227154  -0.24650087  -0.10451555 
  102500        0.005    1.1726923 -0.011172462        24800    13.679983    1.7584969    11.921486    14.488277   0.68445178   -2.8898549  -0.25519136   -0.1061967 
  102600        0.005    1.1721978  0.031629841        24800    13.665461    1.7577554    11.907706    14.463696   0.68410216   -2.8790309  -0.25570103  -0.10536016 
  102700        0.005    1.1669282  -0.03862904        24800    13.656573    1.7498535     11.90672    14.497879   0.67936958   -2.9138256  -0.25199587    -0.104708 
  102800        0.005    1.1770074   0.01267891        24800    13.663713    1.7649676    11.898745       14.465   0.67352334   -2.8897523  -0.24709651  -0.10292916 
  102900        0.005    1.1787172 0.0013420497        24800    13.660308    1.7675314    11.892777    14.478558   0.66312642   -2.8977658    -0.250009  -0.10113222 
  103000        0.005    1.1792806 -0.042564854        24800    13.660327    1.7683764    11.891951    14.467506   0.67104831   -2.8986335  -0.24737104  -0.10059905 
  103100        0.005    1.1727249 0.0088235297        24800    13.657986    1.7585458     11.89944     14.48898   0.67550506     -2.91642  -0.24759546  -0.10103003 
  103200        0.005    1.1606768 0.00044786232        24800    13.658041    1.7404792    11.917561    14.503798   0.65309043   -2.8887219  -0.24919692  -0.10140792 
  103300        0.005    1.1714139 -0.046170121        24800     13.66353    1.7565799     11.90695    14.500312   0.65058029   -2.8912833  -0.25092837  -0.10173112 
  103400        0.005    1.1923879 -0.012483671        24800    13.665534    1.7880311    11.877503    14.481911   0.66247542   -2.9129283   -0.2508843  -0.10307135 
  103500        0.005    1.1893505 -0.004976574        24800    13.668108    1.7834765    11.884631    14.474538   0.65866218   -2.9008772  -0.24695364   -0.1007384 
  103600        0.005    1.1788478 -0.062020791        24800    13.672668    1.7677272    11.904941    14.472139   0.66060916   -2.8785589  -0.24681585  -0.10243236 
  103700        0.005    1.1901758  -0.02136065        24800    13.662982    1.7847141    11.878268    14.475437   0.64540434    -2.893561  -0.24601195  -0.10300115 
  103800        0.005    1.1827299 -0.0092719759        24800    13.668673    1.7735486    11.895124    14.481332    0.6532376   -2.8855863  -0.25014253  -0.10371705 
  103900        0.005    1.1873609 -0.0088109695        24800    13.655631     1.780493    11.875138    14.482868    0.6558854   -2.9021228  -0.25709513  -0.10439843 
  104000        0.005    1.1819446 -0.028586808        24800    13.683102    1.7723711    11.910731     14.48318   0.69885149   -2.9165763  -0.25085658  -0.10386773 
  104100        0.005     1.211103  0.011510359        24800     13.68381    1.8160953    11.867715    14.485632   0.67813842   -2.9346986  -0.25413042  -0.10722649 
  104200        0.005    1.1923741 -0.0086025334        24800    13.682188    1.7880105    11.894178    14.469484   0.67448804   -2.8894504  -0.25330054    -0.107044 
  104300        0.005    1.1834425  0.004006365        24800    13.678776    1.7746172    11.904159    14.465243    0.6659877   -2.8755763   -0.2438343  -0.10766096 
  104400        0.005    1.1672902  0.001722804        24800    13.668809    1.7503963    11.918412    14.472095   0.66421415   -2.8534684  -0.25593529  -0.10849328 
  104500        0.005    1.1784255  -0.00793179        24800    13.676395    1.7670941    11.909301    14.503077   0.66489743   -2.8968289  -0.25261164  -0.10923341 
  104600        0.005    1.1995178 -0.062199159        24800    13.674476    1.7987227    11.875753     14.49147   0.65178463   -2.9060214  -0.25408512  -0.10739487 
  104700        0.005    1.1913353 -0.050903214        24800    13.679557    1.7864527    11.893104    14.505326   0.67294116   -2.9289073  -0.25048167  -0.10577434 
  104800        0.005    1.1818965 -0.055912701        24800    13.681441     1.772299    11.909142    14.493068   0.66039334   -2.8848987   -0.2533503  -0.10607073 
  104900        0.005    1.1768308 -0.021341468        24800    13.675401    1.7647026    11.910698    14.479437   0.65499641   -2.8737948  -0.24481532  -0.10512474 
  105000        0.005    1.1937774 -0.0073112734        24800     13.67513    1.7901148    11.885015    14.484421   0.65873922   -2.8959921   -0.2577107   -0.1044429 
  105100        0.005    1.1864598 -0.021430787        24800    13.683237    1.7791418    11.904095     14.48886   0.67859161   -2.9041108  -0.25515295   -0.1040928 
  105200        0.005    1.1867384 -0.016212182        24800    13.692897    1.7795595    11.913337    14.496483   0.66343226   -2.8817647  -0.25965087  -0.10516198 
  105300        0.005    1.1852579 0.0035080317        24800    13.686252    1.7773395    11.908912    14.477902   0.67917893   -2.8895744  -0.25481466  -0.10377951 
  105400        0.005    1.1775249 -0.0080707434        24800    13.675659    1.7657436    11.909916    14.485761   0.67547294   -2.8859184  -0.26104223  -0.10435725 
  105500        0.005     1.171356 -0.018631872        24800    13.672098     1.756493    11.915605    14.480248   0.66979998   -2.8747763  -0.25388134  -0.10578503 
  105600        0.005    1.1936239 -0.034013506        24800     13.67434    1.7898846    11.884455    14.486688   0.65196943   -2.8986582  -0.25034128  -0.10520251 
  105700        0.005    1.1814772 -0.044612081        24800    13.660451    1.7716702    11.888781    14.477712   0.64796728   -2.8868633  -0.24361259  -0.10642284 
  105800        0.005    1.1849613 -0.0051722701        24800    13.664342    1.7768948    11.887447    14.505534   0.65896918   -2.9141216  -0.25747088  -0.10546306 
  105900        0.005    1.2014526 0.0064760322        24800    13.655337     1.801624    11.853713    14.487597   0.64315449   -2.9326152   -0.2407431   -0.1036801 
  106000        0.005    1.1984121 -0.0055851479        24800    13.662473    1.7970647    11.865408    14.498162   0.66120611   -2.9461442  -0.24566622  -0.10215012 
  106100        0.005    1.1949185  0.026841601        24800    13.665073    1.7918259    11.873247    14.458843   0.67009654    -2.896328  -0.25754306  -0.10182125 
  106200        0.005    1.1625393 -0.023067347        24800    13.675187    1.7432721    11.931915    14.485148   0.67768207   -2.8779127  -0.25136914  -0.10163362 
  106300        0.005    1.1744757  0.014465701        24800     13.67111    1.7611711    11.909939    14.474284   0.67300404   -2.8823533  -0.25394806  -0.10104779 
  106400        0.005    1.1836564 -0.041987457        24800    13.684661     1.774938    11.909724    14.508465   0.68769732   -2.9323401  -0.25073057  -0.10336851 
  106500        0.005    1.2075904  0.020729949        24800    13.683952    1.8108279    11.873125    14.455295   0.69404806   -2.9151686  -0.25710938  -0.10394003 
  106600        0.005    1.1774284 -0.041818268        24800    13.682833    1.7655989    11.917234    14.481446   0.68602527   -2.8960769  -0.25118079  -0.10297964 
  106700        0.005    1.1988211 -0.0057532888        24800     13.67418     1.797678    11.876502    14.485431   0.67006841   -2.9238501  -0.25245989  -0.10268774 
  106800        0.005    1.1855927 -0.0011891866        24800    13.685677    1.7778416    11.907835    14.478777   0.69345607   -2.9141142  -0.24799086  -0.10229267 
  106900        0.005    1.2134422  -0.02397415        24800    13.689516     1.819603    11.869913    14.477521   0.68043866   -2.9323441  -0.25164685  -0.10405526 
  107000        0.005    1.1935939 -0.016029522        24800    13.691575    1.7898396    11.901735    14.483118   0.69896524   -2.9207493  -0.25521044  -0.10438811 
  107100        0.005    1.1923783 -0.020172639        24800    13.682753    1.7880168    11.894736    14.506533   0.69522517   -2.9429451  -0.25791601  -0.10616052 
  107200        0.005    1.2133626 -0.025945359        24800    13.683867    1.8194836    11.864384    14.483775   0.70037507   -2.9633416  -0.25182339  -0.10460187 
  107300        0.005    1.2034821 -0.019361353        24800    13.669954    1.8046673    11.865286    14.515288    0.6915835   -2.9737575  -0.26125208  -0.10657537 
  107400        0.005    1.2079542 -0.025525677        24800    13.655802    1.8113735    11.844429    14.499266   0.65945249   -2.9523643  -0.25655117  -0.10537362 
  107500        0.005    1.2227541 -0.010198403        24800    13.658222    1.8335665    11.824655    14.477222   0.66374342    -2.959484  -0.25214613  -0.10468046 
  107600        0.005    1.1933244 0.0010238346        24800    13.667761    1.7894355    11.878325    14.473196   0.68092128   -2.9258786  -0.24600133   -0.1039119 
  107700        0.005    1.1872441 -0.035897017        24800    13.668053    1.7803178    11.887735    14.499203   0.68025723   -2.9416479  -0.24610421  -0.10397296 
  107800        0.005     1.211744 -0.0075425184        24800    13.669575    1.8170565    11.852519    14.491503   0.67168655   -2.9551371  -0.25156174  -0.10397188 
  107900        0.005    1.2083568  0.013526447        24800    13.667262    1.8119772    11.855285    14.465689   0.65596195   -2.9086653  -0.25336419  -0.10433619 
  108000        0.005    1.1621684  0.043872422        24800    13.677334    1.7427158    11.934619    14.465072   0.68013056    -2.861222  -0.24562556  -0.10373609 
  108100        0.005    1.1959853 -0.068626823        24800     13.67548    1.7934256    11.882054    14.479103   0.70379688   -2.9506774  -0.24846849  -0.10169903 
  108200        0.005    1.1857264 -0.014833032        24800    13.672761    1.7780421    11.894719    14.504145   0.70943919   -2.9595883  -0.25532814  -0.10394825 
  108300        0.005    1.1993174 0.0075496658        24800    13.673426    1.7984222    11.875004    14.476355   0.71935514   -2.9648579  -0.25244967  -0.10339883 
  108400        0.005    1.2017044 -0.012763307        24800    13.655649    1.8020017    11.853647    14.490993   0.68514591   -2.9595919  -0.25904896  -0.10385158 
  108500        0.005    1.1934862  0.004625559        24800    13.648982    1.7896781    11.859304    14.487192   0.69121405   -2.9652255  -0.25274419  -0.10113269 
  108600        0.005    1.1688822 -0.0019346463        24800     13.67094    1.7527835    11.918157    14.506843   0.70107109   -2.9329623  -0.25503445  -0.10176065 
  108700        0.005    1.1952262  0.018847119        24800    13.655221    1.7922873    11.862933    14.460173   0.68737956   -2.9269309  -0.25647176  -0.10121657 
  108800        0.005    1.1949944  0.014895501        24800    13.658027    1.7919398    11.866087    14.473962   0.66933529   -2.9288955  -0.24838516 -0.099929412 
  108900        0.005    1.1804139 -0.049368093        24800    13.652091    1.7700757    11.882015    14.487275   0.67315903   -2.9324841  -0.24640682 -0.099528033 
  109000        0.005    1.1629668 -0.040771085        24800    13.654801    1.7439131    11.910888    14.492057   0.66323454   -2.8974856  -0.24684954  -0.10006864 
  109100        0.005    1.1685955 -0.025396111        24800    13.658835    1.7523536    11.906482    14.465219   0.67478825    -2.880711   -0.2503158   -0.1024993 
  109200        0.005    1.1941127 -0.025136845        24800    13.667666    1.7906175    11.877048    14.452764   0.68949049   -2.9153208  -0.24567376  -0.10421111 
  109300        0.005    1.1720989 -0.007039789        24800    13.649685    1.7576071    11.892078    14.496245   0.66797025   -2.9118405  -0.25527368   -0.1050232 
  109400        0.005    1.2023716 -0.032327699        24800    13.645787    1.8030021    11.842785    14.480088   0.66865697   -2.9450279  -0.25822949  -0.10270283 
  109500        0.005    1.1946596 -0.035765245        24800    13.652885    1.7914377    11.861447     14.49328    0.6873959   -2.9662834  -0.25075877  -0.10218726 
  109600        0.005    1.2075015 -0.078541212        24800    13.669373    1.8106946    11.858679    14.473929    0.7010584   -2.9582813  -0.25433422  -0.10369339 
  109700        0.005    1.1917196 0.0025441354        24800    13.649295    1.7870291    11.862265    14.493866   0.67226134   -2.9434994  -0.25452523  -0.10583693 
  109800        0.005    1.1581892 -0.029626268        24800    13.649172     1.736749    11.912423      14.5029   0.68762034   -2.9194881  -0.25296276  -0.10564671 
  109900        0.005    1.1820355 -0.010698566        24800    13.661677    1.7725074     11.88917    14.472639   0.70543929   -2.9320786   -0.2534377  -0.10339205 
  110000        0.005    1.1979903  -0.02011716        24800    13.658988    1.7964323    11.862556    14.476647   0.69497475   -2.9489225  -0.25723629  -0.10290637 
  110100        0.005    1.1797667  0.007016751        24800    13.652188    1.7691052    11.883083    14.486775   0.69460934   -2.9444689   -0.2540121 -0.099820643 
  110200        0.005    1.1802893  -0.01161789        24800    13.654109    1.7698888    11.884221    14.471289   0.69520805   -2.9315123  -0.25132595 -0.099437898 
  110300        0.005    1.1683079 -0.010331002        24800    13.643296    1.7519223    11.891374    14.501088   0.69512479   -2.9487158  -0.25454855  -0.10157465 
  110400        0.005    1.1618418  0.030716067        24800    13.644172    1.7422261    11.901946     14.48101   0.68367303   -2.9067424  -0.25166382  -0.10433097 
  110500        0.005    1.1704074 0.0094932615        24800    13.646017    1.7550706    11.890947     14.46504   0.69434687   -2.9099621   -0.2527132  -0.10576438 
  110600        0.005    1.1715654  0.016742321        24800    13.639804    1.7568071    11.882996    14.482158   0.68105285   -2.9251578  -0.25148545  -0.10357151 
  110700        0.005    1.1812366 -0.036813493        24800    13.633591    1.7713093    11.862281       14.481   0.68093352   -2.9454545  -0.25271515  -0.10148241 
  110800        0.005    1.1870072 -0.035679973        24800    13.644377    1.7799627    11.864414    14.505351   0.68896435   -2.9729588  -0.25663388  -0.10030872 
  110900        0.005    1.1925783  0.038776816        24800    13.645052    1.7883167    11.856735    14.464947   0.68642578   -2.9383232  -0.25684244 -0.099471389 
  111000        0.005    1.1911616  -0.02990866        24800    13.634697    1.7861923    11.848505    14.500014   0.67733542   -2.9692512  -0.25616028  -0.10343275 
  111100        0.005     1.204115 -0.012600659        24800    13.641614    1.8056165    11.835997    14.455518   0.67242725   -2.9408361  -0.24881029  -0.10230142 
  111200        0.005    1.1728353  0.006173863        24800    13.660577    1.7587114    11.901865     14.49389   0.69487294   -2.9283451   -0.2544553   -0.1040973 
  111300        0.005    1.1918229 -0.014149857        24800    13.651315     1.787184    11.864131    14.481917    0.6992571   -2.9475909  -0.26243294  -0.10701879 
  111400        0.005    1.2095759  0.041263942        24800    13.640306    1.8138052    11.826501    14.479215   0.68109813   -2.9593214  -0.26918886  -0.10530254 
  111500        0.005    1.2018192 -0.015400343        24800    13.637916    1.8021737    11.835742    14.475727   0.68405446   -2.9631057  -0.25404525  -0.10688765 
  111600        0.005    1.1624731 -0.019328223        24800    13.640687    1.7431729    11.897514    14.488175   0.71383977   -2.9506537  -0.24676408  -0.10708279 
  111700        0.005    1.1789344 0.0019193162        24800    13.625495    1.7678571    11.857638    14.487475   0.70489761   -2.9769204  -0.25248272  -0.10533127 
  111800        0.005    1.1921903 -0.032520165        24800     13.61798    1.7877348    11.830245    14.500146   0.68808077   -2.9977744  -0.25442938  -0.10577846 
  111900        0.005     1.202211   -0.0172048        24800    13.613657    1.8027614    11.810896    14.492619   0.66983737   -2.9930828  -0.25094295  -0.10753472 
  112000        0.005    1.1836222 -0.0034911274        24800    13.605802    1.7748866    11.830915    14.470191   0.68029322   -2.9675478  -0.24572784   -0.1062933 
  112100        0.005    1.2000709 0.0051768872        24800    13.593778    1.7995521    11.794226    14.455282   0.66329788   -2.9696779  -0.25039543  -0.10428047 
  112200        0.005    1.1719771 -0.0086803868        24800    13.606552    1.7574243    11.849128    14.497608   0.68263995   -2.9695651  -0.25773836  -0.10381718 
  112300        0.005    1.1447858  0.011940225        24800       13.609      1.71665     11.89235    14.509653   0.67348579   -2.9315319  -0.25615099  -0.10310557 
  112400        0.005    1.1916862 -0.023724441        24800    13.607825    1.7869789    11.820846    14.480407   0.66801446   -2.9701685  -0.25263923  -0.10476747 
  112500        0.005    1.1794021   0.01146289        24800     13.61929    1.7685585    11.850731    14.465067   0.67402695   -2.9247004   -0.2597067  -0.10395544 
  112600        0.005    1.1561767 -0.010479921        24800    13.594677    1.7337311    11.860946      14.4931   0.65426345   -2.9289216  -0.25562782  -0.10186864 
  112700        0.005    1.1501517 -0.051231772        24800    13.591303    1.7246963    11.866606     14.50277   0.67197748   -2.9565182  -0.25027399   -0.1013493 
  112800        0.005    1.1551224  -0.02067344        24800    13.593736    1.7321501    11.861586    14.483412   0.69040254   -2.9553868  -0.25430335  -0.10253831 
  112900        0.005    1.1444292 -0.014776119        24800    13.587647    1.7161152    11.871532    14.486673   0.66999593    -2.931594  -0.25078685  -0.10275591 
  113000        0.005    1.1749742 5.8212884e-05        24800    13.593823    1.7619187    11.831904    14.478278   0.67957017    -2.973501  -0.24911901  -0.10332443 
  113100        0.005    1.1960557 -0.022043467        24800    13.598291    1.7935311     11.80476    14.491184   0.68448912   -2.9992431  -0.26772041  -0.10394998 
  113200        0.005    1.1915069 -0.046113813        24800    13.592326    1.7867101    11.805616     14.50491   0.66938118   -3.0063867  -0.25818822  -0.10410068 
  113300        0.005    1.2055642  0.029694357        24800    13.583083    1.8077896    11.775294    14.457865   0.67633331   -2.9900542   -0.2618834  -0.10696754 
  113400        0.005    1.1964779 -0.024324823        24800    13.589854    1.7941643    11.795689    14.489625   0.67939105   -3.0138616  -0.25274046  -0.10672437 
  113500        0.005     1.198089 0.0085389177        24800    13.590645    1.7965801    11.794065    14.473604   0.67503575   -2.9899081  -0.26008884   -0.1045776 
  113600        0.005    1.1913248 -0.0031098941        24800    13.590765    1.7864371    11.804328    14.500059   0.68538427   -3.0236343  -0.25326809   -0.1042132 
  113700        0.005    1.1592684 0.0024192886        24800    13.584667    1.7383672      11.8463    14.476971   0.67548573   -2.9540537  -0.24777999  -0.10432369 
  113800        0.005    1.1595447  -0.03495793        24800    13.584466    1.7387816    11.845685    14.491477   0.67027432   -2.9631811   -0.2465241   -0.1063615 
  113900        0.005    1.1552105 -0.039478989        24800    13.577392    1.7322823     11.84511    14.474862   0.66274267   -2.9291619  -0.25882925  -0.10450358 
  114000        0.005    1.1957213 -0.021090375        24800    13.576788    1.7930297    11.783758    14.505217   0.67852789   -3.0281164  -0.26708811   -0.1047824 
  114100        0.005    1.1857661 -0.004791003        24800     13.57912    1.7781016    11.801019    14.478985    0.6842456    -3.007449  -0.24897741  -0.10578543 
  114200        0.005     1.170391 -0.012213244        24800    13.567163     1.755046    11.812117    14.500739   0.67351628   -3.0076227   -0.2484158  -0.10609913 
  114300        0.005    1.1943085 -0.059192932        24800    13.564881    1.7909111     11.77397    14.468487   0.66201701   -3.0077848  -0.24555105   -0.1031977 
  114400        0.005    1.1645061 -0.047637496        24800    13.572885    1.7462214    11.826663     14.49058   0.66744061   -2.9829276  -0.24697291  -0.10145684 
  114500        0.005    1.1831156 0.0099997183        24800    13.570398     1.774127    11.796271    14.474598   0.66917381   -2.9953422  -0.24887354  -0.10328411 
  114600        0.005    1.1939795 -0.016671841        24800    13.574102    1.7904178    11.783684    14.502615   0.67139632   -3.0364003    -0.250335  -0.10359204 
  114700        0.005    1.1936494 -0.020045271        24800    13.583694    1.7899229    11.793771    14.474147   0.70385153   -3.0258765   -0.2541427  -0.10420847 
  114800        0.005    1.1910648 -0.047216798        24800    13.583426    1.7860471    11.797379    14.475417   0.69287751   -3.0142065  -0.25251925  -0.10419038 
  114900        0.005    1.2211441 -0.029103064        24800     13.57369    1.8311523    11.742538    14.463989   0.68333893   -3.0486849  -0.25317844  -0.10292709 
  115000        0.005     1.189005 -0.042711561        24800    13.565865    1.7829584    11.782907    14.474406   0.67691058   -3.0219633  -0.24616787  -0.10027845 
  115100        0.005    1.1726358 -0.016811304        24800    13.565696    1.7584122    11.807284    14.491586   0.68864311   -3.0134498  -0.25966297 -0.099832766 
  115200        0.005    1.1830244  -0.07380876        24800    13.576582    1.7739902    11.802592    14.495517   0.69039147   -3.0251844  -0.25778243  -0.10034959 
  115300        0.005    1.1731623 -0.049888066        24800    13.565487    1.7592017    11.806286    14.515905   0.66360247   -3.0136153  -0.25711772  -0.10248896 
  115400        0.005    1.1965943 -0.029691556        24800    13.574252    1.7943388    11.779913    14.488731   0.65659871   -3.0012594   -0.2616714  -0.10248614 
  115500        0.005    1.2047732  0.025707522        24800    13.568662    1.8066035    11.762058    14.487612   0.66797659   -3.0259028  -0.26326178  -0.10436594 
  115600        0.005    1.2060475 0.0067138115        24800    13.583502    1.8085142    11.774988    14.495931   0.68069235   -3.0369341  -0.26083702  -0.10386387 
  115700        0.005    1.2027022 -0.023221611        24800    13.584067    1.8034979    11.780569    14.493581   0.68163489   -3.0285777  -0.26257209  -0.10349768 
  115800        0.005    1.1941392 -0.040514938        24800    13.583057    1.7906573    11.792399    14.502927   0.68528296   -3.0348128  -0.25471139  -0.10628689 
  115900        0.005    1.1790361 -0.031625552        24800    13.578696    1.7680096    11.810686    14.489049   0.68929331   -3.0116722  -0.25238178  -0.10360268 
  116000        0.005    1.2085262  0.022121277        24800       13.575    1.8122311    11.762768    14.464298   0.68796236   -3.0290021  -0.25688847  -0.10360118 
  116100        0.005    1.1709649 -0.070405609        24800    13.578029    1.7559066    11.822122    14.501827   0.68932352   -3.0076301  -0.25626294  -0.10513522 
  116200        0.005    1.1669776 -0.021940192        24800     13.57184    1.7499275    11.821912     14.48153   0.68803563   -2.9742493   -0.2676605  -0.10574333 
  116300        0.005    1.1787684  -0.03207198        24800      13.5682    1.7676082    11.800592    14.493535    0.6897529    -3.022953  -0.25526363  -0.10447877 
  116400        0.005    1.2127081 0.0094572435        24800    13.570729    1.8185021    11.752227    14.498813   0.67030328    -3.056029  -0.25661109  -0.10424982 
  116500        0.005    1.1934651   0.04702193        24800    13.566485    1.7896464    11.776839     14.49378   0.67175945    -3.027735   -0.2571121  -0.10385338 
  116600        0.005     1.188836 -0.010251761        24800    13.572304     1.782705    11.789599    14.484616   0.66838838   -3.0080349  -0.24979193  -0.10557915 
  116700        0.005    1.1931786 -0.038322115        24800    13.572065    1.7892169    11.782848    14.490892   0.67296542   -3.0214565  -0.25622201  -0.10333088 
  116800        0.005    1.2033291 -0.049960728        24800    13.568966    1.8044379    11.764528    14.486986   0.65450564   -3.0288611  -0.24412916  -0.10397291 
  116900        0.005    1.1655461 0.0019518313        24800    13.579412    1.7477809    11.831631    14.475636   0.68314687   -2.9800196  -0.24420572  -0.10292671 
  117000        0.005     1.155507 -0.021375184        24800    13.586296    1.7327268     11.85357    14.495087   0.68446348   -2.9714055  -0.25229581  -0.10227971 
  117100        0.005    1.1495997 -0.018828184        24800    13.591767    1.7238687    11.867898    14.487297   0.68706768   -2.9543081  -0.25064926  -0.10150971 
  117200        0.005    1.1709984   -0.0124639        24800    13.596957    1.7559568    11.841001     14.48478     0.681053   -2.9685393  -0.25352851   -0.1027646 
  117300        0.005    1.2007646 -0.017162932        24800    13.587415    1.8005924    11.786823    14.466116   0.66561198   -2.9940856  -0.25075907  -0.10006027 
  117400        0.005    1.1637699 0.0071469539        24800    13.599248    1.7451174    11.854131    14.477653    0.6733368    -2.950251  -0.24935678 -0.097251569 
  117500        0.005     1.165802 0.0082144024        24800    13.599015    1.7481646    11.850851    14.499256   0.66969643   -2.9716215  -0.24806249 -0.098417834 
  117600        0.005    1.1626288 -0.034360191        24800    13.591068    1.7434063    11.847661    14.496196   0.68486529   -2.9817677  -0.25308172 -0.098550149 
  117700        0.005    1.1987602 -0.036477757        24800    13.591177    1.7975867    11.793591    14.452064   0.68811805   -2.9988669   -0.2506415 -0.097082611 
  117800        0.005    1.1888606  0.014427786        24800    13.595866    1.7827418    11.813124    14.479877    0.6725913   -2.9909162  -0.25039077 -0.098037539 
  117900        0.005    1.1869514 -0.020947647        24800    13.594966    1.7798789    11.815087    14.485803   0.67369152   -2.9888049  -0.25511774  -0.10048492 
  118000        0.005    1.1948293 -0.043279724        24800    13.583622    1.7916921     11.79193    14.499551   0.67315446   -3.0223838   -0.2575511  -0.10083983 
  118100        0.005    1.1924363 -0.034886285        24800    13.586402    1.7881038    11.798298    14.491106   0.67013999     -3.00348   -0.2589018  -0.10056541 
  118200        0.005    1.2029218 -0.017124247        24800     13.57642    1.8038272    11.772593     14.45565   0.65708214   -2.9827874   -0.2571598  -0.10019149 
  118300        0.005    1.1949201  0.019972167        24800    13.582071    1.7918284    11.790243    14.454062   0.66509031   -2.9762261  -0.25124925   -0.1014342 
  118400        0.005    1.1636563 0.0036180699        24800    13.580451     1.744947    11.835504    14.483136   0.67535451   -2.9708003  -0.25087009  -0.10131554 
  118500        0.005    1.1882046 -0.023754148        24800    13.573433    1.7817582    11.791675    14.479935   0.64784341   -2.9737281  -0.26375507 -0.098620344 
  118600        0.005    1.1674354 -0.027404563        24800     13.57336     1.750614    11.822746    14.478458    0.6510066   -2.9477772  -0.25827023  -0.10067162 
  118700        0.005    1.1534105  0.013296856        24800    13.567435    1.7295831    11.837852    14.478579   0.63542592   -2.9246816  -0.25045216  -0.10101959 
  118800        0.005    1.1823886  -0.02925567        24800    13.571746    1.7730368    11.798709    14.485157   0.64862316   -2.9806585  -0.25514563 -0.099267177 
  118900        0.005    1.2016941 -0.030536728        24800    13.568597    1.8019861    11.766611    14.455078   0.64376211   -2.9819635  -0.25326969 -0.096995911 
  119000        0.005    1.2072554 -0.010513221        24800    13.583734    1.8103256    11.773408    14.495067    0.6713784   -3.0431777  -0.25232951 -0.097529629 
  119100        0.005    1.2241527  -0.02732737        24800    13.581797    1.8356637    11.746133    14.502684   0.67370834   -3.0737719  -0.25707153 -0.099415454 
  119200        0.005    1.2156328  0.053151343        24800    13.592681    1.8228878    11.769793    14.460604   0.67526785   -3.0065065  -0.25932136   -0.1002507 
  119300        0.005    1.1859022 0.0038037846        24800    13.601287    1.7783056    11.822982    14.486419   0.68084926   -2.9957691  -0.24829341  -0.10022428 
  119400        0.005    1.1875772 0.00066113381        24800    13.601421    1.7808173    11.820603     14.48908   0.68467847   -3.0023095  -0.25048433  -0.10036156 
  119500        0.005    1.2106818 -0.048043525        24800    13.584492    1.8154636    11.769028     14.48999   0.67755025   -3.0332855  -0.26322975  -0.10199616 
  119600        0.005    1.2080635 -0.050753386        24800    13.580421    1.8115374    11.768884    14.467024   0.66543821   -2.9961679  -0.26533336  -0.10207724 
  119700        0.005    1.1813202 -0.022527466        24800    13.579143    1.7714347    11.807708    14.476467   0.65495857   -2.9644891  -0.25538443  -0.10384432 
  119800        0.005    1.1639332 -0.011215577        24800    13.591098    1.7453623    11.845736    14.481233   0.66961202   -2.9504326  -0.25339384  -0.10128297 
  119900        0.005    1.1699452  0.011031634        24800    13.578248    1.7543775     11.82387    14.464323   0.65637893   -2.9375768  -0.25879849  -0.10045629 
  120000        0.005    1.1766886 0.0099063553        24800    13.571624    1.7644895    11.807134    14.491624   0.66171074   -2.9850944  -0.26044655  -0.10065933 
  120100        0.005    1.1879124  0.022348632        24800    13.573876      1.78132    11.792556    14.477905   0.67834871   -2.9971944  -0.26476977  -0.10173402 
  120200        0.005     1.169933 -0.027870025        24800      13.5793    1.7543592     11.82494    14.509309   0.68040428   -3.0134864   -0.2502145   -0.1010718 
  120300        0.005    1.1986699 0.0060827951        24800    13.574149    1.7974513    11.776698    14.480679   0.66846914   -3.0042714  -0.26342998  -0.10474942 
  120400        0.005    1.1735032 -0.016026681        24800     13.56726    1.7597128    11.807547    14.508391   0.65173643   -2.9878344  -0.25945956  -0.10528667 
  120500        0.005     1.190457  0.015198536        24800    13.570912    1.7851357    11.785776    14.473215   0.67641381   -3.0014845  -0.25906768  -0.10330007 
  120600        0.005    1.2065072 -0.037714754        24800    13.572857    1.8092037    11.763654    14.499179   0.67091422    -3.036574  -0.26575247  -0.10411284 
  120700        0.005    1.1788741 -0.013526908        24800    13.580009    1.7677667    11.812242    14.508922   0.66853169    -3.001891  -0.25768031  -0.10564028 
  120800        0.005    1.1755203 -0.028035798        24800    13.574511    1.7627375    11.811774    14.484714   0.65300722   -2.9694804  -0.25090056  -0.10556617 
  120900        0.005    1.2200458 -0.016306835        24800    13.575249    1.8295053    11.745744    14.479398   0.63542345   -3.0076607  -0.25425017  -0.10716696 
  121000        0.005    1.1916932 -0.021054322        24800    13.571393    1.7869895    11.784404    14.471261   0.64715748   -2.9839047  -0.24331908  -0.10679159 
  121100        0.005    1.2081704 -0.0038696349        24800    13.573934    1.8116976    11.762237    14.457477   0.65536627   -2.9840408  -0.26135076  -0.10521521 
  121200        0.005    1.1949484 -0.021548406        24800    13.570311    1.7918708     11.77844    14.475247   0.66731371    -3.008881  -0.25203534  -0.10320382 
  121300        0.005    1.1875443 -0.021403213        24800    13.560494     1.780768    11.779726    14.468149   0.64049064   -2.9757545  -0.24949649  -0.10366237 
  121400        0.005    1.1612966  0.021937732        24800    13.561395    1.7414086    11.819987    14.479347   0.66477703   -2.9663111  -0.25620131  -0.10162459 
  121500        0.005    1.1765291 -0.0090572213        24800    13.569072    1.7642504    11.804821    14.477914   0.67628217   -2.9909292  -0.25550948  -0.10293653 
  121600        0.005    1.1806123    -0.012238        24800    13.569121    1.7703732    11.798747    14.450421   0.65696719   -2.9514009  -0.25280432  -0.10443605 
  121700        0.005    1.1506253 -0.015979254        24800    13.569445    1.7254066    11.844038    14.491657   0.65175766   -2.9439161  -0.25271845  -0.10274179 
  121800        0.005     1.192226  0.018801332        24800    13.555162    1.7877884    11.767374    14.471383    0.6445468   -2.9856532  -0.25862153  -0.10428164 
  121900        0.005    1.1889407 -0.053248391        24800    13.573869     1.782862    11.791007    14.490972   0.67675982   -3.0170147  -0.25459325  -0.10511694 
  122000        0.005     1.200648 0.0047825826        24800    13.569216    1.8004176    11.768798    14.481952   0.66885299   -3.0225265  -0.25435835  -0.10512226 
  122100        0.005    1.1920878 -0.065593085        24800    13.573692    1.7875811    11.786111    14.479613   0.67833234   -3.0090589  -0.25764586  -0.10512928 
  122200        0.005    1.1983981 -0.0064689274        24800    13.558605    1.7970437    11.761562    14.481507   0.67791386   -3.0353341  -0.25867492  -0.10385007 
  122300        0.005    1.1780505 -0.018052938        24800    13.551822    1.7665316     11.78529    14.475369   0.66915318   -2.9918427  -0.26229755  -0.10509162 
  122400        0.005    1.1654592 -0.0088807955        24800    13.555901    1.7476505    11.808251    14.482696    0.6771085   -2.9769562  -0.26782484  -0.10677231 
  122500        0.005    1.1687812  0.013242493        24800    13.556631     1.752632    11.803999    14.474313   0.67304931   -2.9720981  -0.26483223  -0.10643223 
  122600        0.005    1.1742646 -0.048874853        24800    13.565122    1.7608546    11.804267    14.500924   0.68646222   -3.0236115  -0.25632088  -0.10318706 
  122700        0.005    1.1589582 -0.011725901        24800     13.55085    1.7379021    11.812948    14.503391   0.68733432   -3.0190468  -0.25555803  -0.10317337 
  122800        0.005    1.1606757 -0.0064221076        24800    13.554361    1.7404775    11.813884    14.496045   0.67827622   -2.9976704  -0.26163343  -0.10113324 
  122900        0.005    1.1485892 -0.059306949        24800    13.549903    1.7223533    11.827549    14.492028   0.69161031   -2.9892454  -0.26399673  -0.10284673 
  123000        0.005    1.1773778 0.0098869764        24800    13.554765     1.765523    11.789242    14.471951   0.68385842   -3.0143591  -0.24993696  -0.10227102 
  123100        0.005    1.1735761 -0.040282879        24800     13.54464    1.7598222    11.784818    14.467599   0.66813785   -2.9988026  -0.24934951  -0.10276666 
  123200        0.005    1.2037505 -0.024663025        24800    13.538009    1.8050698    11.732939    14.474936   0.66138768   -3.0480775   -0.2535237  -0.10178332 
  123300        0.005    1.1583855 -0.019340279        24800    13.543679    1.7370432    11.806635    14.504698   0.66098596   -3.0047941  -0.25223924  -0.10201519 
  123400        0.005    1.1771633 -0.012887182        24800    13.557291    1.7652013     11.79209    14.484314   0.68065278   -3.0182714  -0.25179702  -0.10280879 
  123500        0.005    1.2140306  0.015464675        24800    13.553027    1.8204852    11.732542    14.483878   0.67393328    -3.068266  -0.25225818  -0.10474451 
  123600        0.005    1.2010434 -0.00094566646        24800    13.556459    1.8010105    11.755448    14.506086    0.6680392   -3.0595943  -0.25357047  -0.10551198 
  123700        0.005    1.1962726 -0.011269766        24800    13.546939    1.7938565    11.753082    14.491141    0.6620762   -3.0328587  -0.26049485  -0.10678088 
  123800        0.005    1.1664033 -0.048947782        24800    13.552905    1.7490663    11.803839    14.517186   0.67018524   -3.0244707  -0.25508146  -0.10398026 
  123900        0.005    1.1713557 0.0089591555        24800    13.548701    1.7564926    11.792208    14.493172   0.68871251   -3.0316017  -0.25442307   -0.1036517 
  124000        0.005    1.1758708 -0.015564971        24800    13.538326    1.7632631    11.775063    14.467796   0.66981758    -2.993815  -0.26536408  -0.10337188 
  124100        0.005    1.1699176  0.013056532        24800    13.533012     1.754336    11.778676    14.469253   0.66893534   -3.0020308  -0.25434222   -0.1031396 
  124200        0.005    1.1695564 -0.040164004        24800     13.52938    1.7537945    11.775586    14.491171   0.65843405   -3.0139302  -0.25503209  -0.10505682 
  124300        0.005    1.2057308  0.041754261        24800    13.522388    1.8080393    11.714349    14.465104   0.67081088   -3.0553575  -0.26025824  -0.10595053 
  124400        0.005    1.1786488 -0.044397606        24800    13.522248    1.7674289     11.75482    14.490362   0.67507317   -3.0533557  -0.25325838  -0.10400146 
  124500        0.005    1.1768138 -0.087311197        24800    13.529633    1.7646771    11.764956    14.481286   0.69152992   -3.0446946  -0.25824385  -0.10492218 
  124600        0.005    1.1691108 -0.015727143        24800     13.52172    1.7531263    11.768593    14.475822   0.66801434   -3.0162588  -0.25496018  -0.10402362 
  124700        0.005    1.1818125 -0.020914873        24800    13.522418     1.772173    11.750245    14.447669   0.68022566   -3.0183352  -0.25683003  -0.10248491 
  124800        0.005     1.152498  0.028455494        24800    13.515282    1.7282148    11.787067    14.489448   0.67697919   -3.0198687  -0.25896471  -0.10052698 
  124900        0.005    1.1869747 -0.033290173        24800    13.521152    1.7799139    11.741238     14.46864   0.67494714   -3.0538968  -0.24810445  -0.10034868 
  125000        0.005      1.19408  0.022420078        24800    13.520683    1.7905686    11.730115    14.468394    0.6743321   -3.0612116  -0.25104355  -0.10035663 
  125100        0.005    1.1814989 0.0011979118        24800      13.5226    1.7717027    11.750897    14.466666    0.6688247   -3.0305781  -0.25193979  -0.10207622 
  125200        0.005     1.151105 -0.032272105        24800      13.5245    1.7261258    11.798374    14.468507   0.70723377   -3.0257143  -0.24943813   -0.1022143 
  125300        0.005    1.1766733 0.0033010502        24800    13.519434    1.7644666    11.754967    14.468101   0.68110261   -3.0325792  -0.25838748  -0.10326994 
  125400        0.005    1.1788466  -0.02701091        24800    13.515027    1.7677255    11.747301    14.479622    0.6540645   -3.0257299  -0.25725481  -0.10340018 
  125500        0.005    1.1627865 -0.020880641        24800    13.510563    1.7436427     11.76692    14.476057   0.66269171   -3.0170559   -0.2525522  -0.10222084 
  125600        0.005    1.1580088 -0.013318941        24800    13.525509    1.7364784    11.789031    14.477442    0.6586822   -2.9904793  -0.25426676  -0.10234723 
  125700        0.005     1.169738 -0.017494652        24800     13.52953    1.7540669    11.775463    14.478157   0.65999876   -3.0082267  -0.25247625  -0.10198919 
  125800        0.005    1.1907661  0.032964075        24800    13.531808    1.7855992    11.746209    14.462581   0.66222636   -3.0240487   -0.2539229  -0.10062696 
  125900        0.005    1.1679702  0.031687024        24800    13.521301    1.7514159    11.769885    14.482929   0.65589943   -3.0040974  -0.26292825  -0.10191777 
  126000        0.005    1.1762058 -0.032414645        24800    13.523828    1.7637655    11.760062    14.474372    0.6423383   -2.9991355  -0.25523159  -0.10228093 
  126100        0.005    1.1602336 -0.00081335317        24800    13.517988    1.7398146    11.778173    14.467186   0.65226368    -2.988221  -0.25113594  -0.10191901 
  126200        0.005    1.1455986 -0.018288168        24800    13.538148    1.7178688     11.82028    14.481219   0.68206626   -3.0030241  -0.23821647  -0.10176535 
  126300        0.005    1.1761752 -0.030754005        24800     13.53178    1.7637196    11.768061    14.461324   0.65962021     -2.99085  -0.25941703  -0.10261609 
  126400        0.005    1.1627223 0.0030807538        24800    13.538853    1.7435464    11.795307    14.481391   0.67919652   -3.0051334  -0.25851734  -0.10162991 
  126500        0.005     1.164612 0.0067699482        24800    13.530152    1.7463801    11.783772    14.479444   0.65338961   -2.9915776  -0.25489032  -0.10259337 
  126600        0.005    1.1805379 -0.0044904491        24800    13.520261    1.7702616        11.75    14.480174   0.65880599   -3.0306612  -0.25675206  -0.10156673 
  126700        0.005     1.192685 0.0073967692        24800    13.517759    1.7884766    11.729283    14.449187   0.67331898   -3.0339696  -0.25738233  -0.10187151 
  126800        0.005    1.1641015 -0.015048896        24800    13.523186    1.7456147    11.777571    14.484438   0.66102481   -3.0106912  -0.25631078  -0.10088921 
  126900        0.005    1.1716219 -0.032692557        24800    13.520184    1.7568918    11.763292    14.484087   0.66749055   -3.0305701  -0.25635773  -0.10135744 
  127000        0.005    1.1950314 0.0010169714        24800    13.522839    1.7919952    11.730844    14.473248   0.66141046   -3.0536452  -0.24929269  -0.10087647 
  127100        0.005    1.1691586 -0.037785277        24800    13.524477    1.7531979    11.771279    14.473217   0.66002962   -3.0044032  -0.25685826    -0.100706 
  127200        0.005    1.1631113 0.00073192159        24800    13.531345    1.7441297    11.787215    14.450586    0.6599256   -2.9643303  -0.25742299  -0.10154304 
  127300        0.005    1.1593739 -0.051085565        24800    13.542435    1.7385254     11.80391    14.492757   0.66783305   -2.9957628  -0.26030444  -0.10061337 
  127400        0.005    1.1799999 -0.0024230494        24800    13.535328    1.7694548    11.765873    14.477884   0.65178114   -3.0039342  -0.25710938  -0.10274839 
  127500        0.005    1.1740911 -0.047192474        24800    13.529979    1.7605944    11.769385    14.493669   0.65036945    -3.015332  -0.25678661  -0.10253574 
  127600        0.005    1.2104267 -0.010389868        24800    13.525291    1.8150811     11.71021    14.471308   0.64920737   -3.0428759  -0.26545549  -0.10197368 
  127700        0.005      1.18626 -0.052194843        24800    13.518292    1.7788422     11.73945    14.475428   0.63188887    -2.998631  -0.26573701  -0.10349905 
  127800        0.005    1.1771389  0.011402346        24800    13.523354    1.7651648     11.75819    14.467379   0.64022837   -2.9858459  -0.26012984  -0.10344213 
  127900        0.005    1.1748291 -0.020200384        24800    13.529138     1.761701    11.767437    14.493657   0.65562796   -3.0255153  -0.25601317  -0.10031908 
  128000        0.005    1.1921682 -0.013111705        24800    13.525771    1.7877018     11.73807    14.465672   0.67148165    -3.042783  -0.25640957 -0.099891741 
  128100        0.005    1.1875398 0.0045225702        24800    13.528852    1.7807612     11.74809    14.479839   0.67657155   -3.0402564  -0.26748205  -0.10058212 
  128200        0.005    1.1787774 -0.019233767        24800    13.528454    1.7676218    11.760833      14.4909   0.66617414   -3.0381523   -0.2577645  -0.10032507 
  128300        0.005     1.180288 -0.072592736        24800    13.534665    1.7698869    11.764778     14.49522   0.69544627     -3.06936   -0.2550357  -0.10149274 
  128400        0.005    1.1710783 -0.012618368        24800    13.529032    1.7560767    11.772956    14.492808   0.67640105   -3.0436079  -0.25088966  -0.10175527 
  128500        0.005    1.1703509 -0.029031487        24800    13.532562    1.7549859    11.777576     14.49257   0.67322004   -3.0296932  -0.25535247  -0.10316765 
  128600        0.005     1.187805  0.014371736        24800     13.53711    1.7811589    11.755952     14.46781   0.67420504   -3.0329806  -0.25199321  -0.10108927 
  128700        0.005    1.1964963 0.0094888997        24800     13.53027    1.7941919    11.736078     14.47036   0.67332569   -3.0562854  -0.25318165 -0.098140375 
  128800        0.005    1.1922122 -0.0066240797        24800    13.515294    1.7877677    11.727527    14.498873   0.65001818   -3.0616949  -0.26070897 -0.098960893 
  128900        0.005     1.194969 -0.018155288        24800    13.522652    1.7919016     11.73075    14.476288   0.66208283   -3.0480214  -0.25882155   -0.1007778 
  129000        0.005     1.192293  0.027843257        24800    13.543179    1.7878889    11.755291    14.463494    0.7031025   -3.0530036  -0.25787504  -0.10042734 
  129100        0.005    1.1953648 -0.012624757        24800    13.526002    1.7924951    11.733507    14.458467   0.69107138   -3.0535743  -0.26250006 -0.099957409 
  129200        0.005      1.19276 -0.030412968        24800    13.519413    1.7885892    11.730824    14.478775   0.67110619   -3.0719138  -0.24599257  -0.10115026 
  129300        0.005     1.192148 -0.012855542        24800    13.524676    1.7876714    11.737005    14.486551   0.66923444   -3.0661894  -0.25027726  -0.10231372 
  129400        0.005    1.1827077 -0.0002249296        24800    13.528778    1.7735154    11.755262    14.478719   0.67732239   -3.0401013  -0.25794845  -0.10272921 
  129500        0.005    1.1916529 0.0095829864        24800    13.516126     1.786929    11.729197    14.471757   0.65918768   -3.0411888  -0.25826775   -0.1022917 
  129600        0.005    1.1809623  0.021996516        24800    13.516296     1.770898    11.745398    14.441889   0.66304819   -2.9994365  -0.25645335  -0.10364903 
  129700        0.005    1.1576638 -0.018325693        24800    13.524889    1.7359611    11.788927     14.48055   0.66754095   -2.9933172  -0.26085853  -0.10498791 
  129800        0.005    1.1761067 0.00092759405        24800    13.516081    1.7636169    11.752464    14.473954   0.66041525   -3.0114078  -0.26604315  -0.10445446 
  129900        0.005    1.1634549 0.0011207964        24800     13.51985    1.7446451    11.775205    14.499457   0.65973835   -3.0225768  -0.25957753  -0.10183627 
  130000        0.005    1.1965055 -0.011845982        24800    13.511902    1.7942057    11.717697    14.477601    0.6582634    -3.053871  -0.26192245  -0.10237469 
  130100        0.005     1.179518 -0.033582441        24800    13.516677    1.7687323    11.747945    14.473004   0.66147392   -3.0188799  -0.26331206  -0.10434129 
  130200        0.005    1.1614804 -0.038479874        24800     13.53506    1.7416842    11.793376    14.477448   0.70265479   -3.0308414  -0.25090347  -0.10498256 
  130300        0.005    1.1806064 0.0069462035        24800    13.523242    1.7703644    11.752878    14.474071   0.69158266   -3.0515837  -0.26039456  -0.10079737 
  130400        0.005    1.1932453   0.01800808        24800     13.51103    1.7893169    11.721713     14.46879   0.66398473   -3.0449817  -0.26247659  -0.10360388 
  130500        0.005     1.182598  0.012479808        24800    13.510216    1.7733508    11.736865    14.464014   0.65700717    -3.022918  -0.25823191  -0.10300663 
  130600        0.005    1.1769243 -0.0058167754        24800    13.516505    1.7648429    11.751662    14.494825   0.66618059   -3.0521497  -0.25216052  -0.10503375 
  130700        0.005     1.174585 -0.038851943        24800    13.514277     1.761335    11.752942    14.477705   0.67152426   -3.0438885  -0.24835596  -0.10404327 
  130800        0.005    1.1748473  -0.02089965        24800    13.516781    1.7617283    11.755053    14.480926   0.66849809   -3.0450761  -0.24592547  -0.10337034 
  130900        0.005    1.1849962 -0.0036876419        24800    13.512528     1.776947    11.735581    14.475666   0.65556942   -3.0293614  -0.26148383  -0.10480855 
  131000        0.005    1.2180976  0.010489355        24800     13.51061    1.8265839    11.684026    14.486075   0.64241854   -3.0784794  -0.25885013  -0.10713766 
  131100        0.005    1.1835556 0.0050001417        24800     13.51886    1.7747869    11.744073    14.470412   0.66051181   -3.0176997  -0.26177752  -0.10737358 
  131200        0.005    1.2004894  0.011609096        24800    13.519126    1.8001797    11.718947    14.469428   0.66683186   -3.0509007   -0.2600418  -0.10637088 
  131300        0.005    1.1987017 -0.035605705        24800    13.514894     1.797499    11.717395    14.482753   0.66347265   -3.0714125  -0.25139058  -0.10602728 
  131400        0.005    1.1883229 -0.016407473        24800    13.524553    1.7819356    11.742618    14.477696   0.66722254   -3.0413183  -0.25443328  -0.10654969 
  131500        0.005    1.1788378 -0.054353054        24800    13.514502    1.7677123     11.74679    14.467718   0.65458536   -3.0144729  -0.25415452  -0.10688591 
  131600        0.005    1.1686891 -0.0033226769        24800    13.529015    1.7524939    11.776521    14.475271   0.67128036   -3.0063783  -0.26016589  -0.10348554 
  131700        0.005     1.174141  0.013756454        24800    13.520131    1.7606692    11.759462    14.473473   0.65614323   -3.0127158  -0.25662889  -0.10081033 
  131800        0.005    1.1819802 -0.041370384        24800    13.532747    1.7724245    11.760323    14.495009   0.65777654   -3.0421488  -0.24996912  -0.10034461 
  131900        0.005    1.1854629 -0.0075582716        24800    13.541285    1.7776469    11.763638     14.47256   0.67669166   -3.0294677  -0.25554336  -0.10060232 
  132000        0.005    1.2000917 -0.020079586        24800    13.535849    1.7995833    11.736266    14.471261   0.66834543   -3.0476603  -0.25634993 -0.099330454 
  132100        0.005    1.1772859 -0.010590613        24800    13.540111    1.7653852    11.774726    14.480615   0.67832207   -3.0217139  -0.26236493  -0.10013221 
  132200        0.005    1.1853429 -0.028509109        24800    13.537717     1.777467     11.76025    14.498449   0.67228766   -3.0539237  -0.25630767  -0.10025565 
  132300        0.005    1.1945796  0.017296146        24800    13.529917    1.7913178    11.738599    14.501514   0.66098796   -3.0613321  -0.26260564 -0.099964788 
  132400        0.005     1.186118 -0.017526357        24800    13.530835    1.7786293    11.752205    14.491129     0.641956   -3.0215868  -0.26050644 -0.098786667 
  132500        0.005     1.199173 -0.016401234        24800    13.528904    1.7982056    11.730699    14.481384   0.63879679   -3.0345287  -0.25683785 -0.098115967 
  132600        0.005    1.2003665 0.0025638347        24800    13.511865    1.7999954    11.711869    14.486776    0.6065394    -3.029985   -0.2541528 -0.097308282 
  132700        0.005    1.1800181 -0.052504495        24800    13.513286    1.7694822    11.743804    14.471612   0.62951894   -3.0045901  -0.25418142 -0.098554739 
  132800        0.005    1.1458965 -0.040855964        24800    13.510987    1.7183156    11.792672     14.48878    0.6279631   -2.9749186  -0.24944889 -0.099703828 
  132900        0.005    1.1516976 -0.056653647        24800    13.510669    1.7270146    11.783654    14.494833   0.64371423   -2.9965976  -0.25695125  -0.10134402 
  133000        0.005    1.1759844 0.0045940064        24800    13.507395    1.7634335    11.743961    14.471205   0.65167262   -3.0195439  -0.25731586   -0.1020566 
  133100        0.005    1.2028337 -0.010005328        24800    13.496245    1.8036951     11.69255    14.471564   0.64561732   -3.0590813  -0.25963924  -0.10591102 
  133200        0.005    1.1703779 -0.055490318        24800    13.500547    1.7550264     11.74552    14.509448   0.64992491    -3.045064  -0.26307139  -0.10571712 
  133300        0.005    1.1863719  0.037973571        24800    13.491612    1.7790099    11.712602    14.480788   0.63423403   -3.0309533  -0.26455616  -0.10691053 
  133400        0.005    1.1820984 -0.065505318        24800     13.50268    1.7726016    11.730078    14.484887   0.66076147   -3.0549432  -0.25322479  -0.10740255 
  133500        0.005    1.1747376 -0.032608051        24800     13.49472    1.7615639    11.733156    14.503422    0.6535757   -3.0576322  -0.25884242  -0.10736641 
  133600        0.005     1.184851 -0.042331834        24800    13.508954    1.7767293    11.732225    14.462318   0.66884906   -3.0470483  -0.24518177   -0.1067127 
  133700        0.005    1.1894799 -0.048043832        24800    13.503279    1.7836706    11.719609    14.474666   0.65777588   -3.0528407  -0.25437653  -0.10561622 
  133800        0.005    1.2147085 0.0097407271        24800    13.504549    1.8215017    11.683047    14.461763   0.65982173     -3.07203  -0.26057761  -0.10593034 
  133900        0.005    1.2130578 -0.053191881        24800    13.495936    1.8190264     11.67691     14.49893   0.65829795   -3.1147534  -0.26240927  -0.10315509 
  134000        0.005    1.1636675  -0.04082012        24800    13.502535    1.7449638    11.757571    14.503802   0.66807917   -3.0529168  -0.25843276  -0.10296035 
  134100        0.005    1.1682442 -0.015315285        24800    13.495467    1.7518269     11.74364    14.487098   0.64987579   -3.0345383  -0.25530467  -0.10349104 
  134200        0.005    1.1587597 -0.013430826        24800    13.503872    1.7376044    11.766268    14.477168   0.68344061   -3.0321416  -0.25750548  -0.10469371 
  134300        0.005    1.1794683 -0.009034244        24800    13.496313    1.7686577    11.727656    14.487056   0.65720526   -3.0485025  -0.26495402   -0.1031492 
  134400        0.005    1.1960478 0.0041833552        24800    13.502878    1.7935194    11.709358    14.480826   0.65488412   -3.0623676    -0.263414   -0.1005701 
  134500        0.005    1.1854588 4.8247042e-05        24800    13.499511    1.7776407     11.72187    14.494645   0.66101681   -3.0617042  -0.26950178  -0.10258599 
  134600        0.005    1.2157069 -0.049532274        24800    13.490077    1.8229989    11.667078    14.474303   0.64561808   -3.0870599  -0.26281911  -0.10296338 
  134700        0.005    1.1862481 -0.028338895        24800    13.492343    1.7788243    11.713519    14.481535   0.65591661   -3.0552855  -0.26396678  -0.10468067 
  134800        0.005    1.1835553 -0.001363551        24800    13.497634    1.7747864    11.722848    14.484623   0.66646254   -3.0576936  -0.26670451  -0.10383937 
  134900        0.005    1.1814805 -0.020005261        24800    13.499933    1.7716751    11.728258    14.449858   0.67495958   -3.0364607  -0.25658117  -0.10351793 
  135000        0.005    1.1785726 -0.027378785        24800    13.489002    1.7673147    11.721687     14.47107    0.6461833   -3.0317793  -0.25766778  -0.10611907 
  135100        0.005    1.1828942 -0.034045434        24800    13.500079     1.773795    11.726284    14.485264   0.66424683   -3.0632776  -0.25535989   -0.1045892 
  135200        0.005    1.1598987 -0.030932088        24800    13.494742    1.7393124     11.75543    14.497711    0.6569356   -3.0348595  -0.26036736   -0.1039901 
  135300        0.005     1.170817  -0.03567872        24800    13.496391    1.7556848    11.740706    14.486804   0.64352227   -3.0209165  -0.26359407  -0.10510951 
  135400        0.005    1.1949119 -0.020152134        24800    13.494534     1.791816    11.702718    14.455356   0.66192612   -3.0538055  -0.25491089  -0.10584794 
  135500        0.005      1.18002 -0.0084464379        24800    13.496864    1.7694851    11.727379      14.4673   0.67388785   -3.0514778  -0.25610149  -0.10622953 
  135600        0.005    1.2024507 -0.0036776486        24800    13.500977    1.8031208    11.697856    14.488498    0.6664236   -3.0990696  -0.25197916  -0.10601698 
  135700        0.005    1.2185685 -0.0010641166        24800    13.497148      1.82729    11.669858    14.475517    0.6675869   -3.1072734  -0.25899118  -0.10698184 
  135800        0.005    1.1802621 -0.026370539        24800    13.486567     1.769848    11.716719    14.495383   0.65064641   -3.0668184  -0.25688552  -0.10560655 
  135900        0.005    1.1910375 -0.034003689        24800    13.496939    1.7860062    11.710933    14.463759   0.66135707   -3.0616222  -0.24961138  -0.10294984 
  136000        0.005    1.1727859 0.0083265506        24800    13.488085    1.7586372    11.729448    14.498282   0.62679434   -3.0463286  -0.24813756  -0.10116194 
  136100        0.005    1.1645314 -0.0041033254        24800    13.483348    1.7462593    11.737088    14.486313   0.64466544   -3.0448094  -0.24723219  -0.10184835 
  136200        0.005    1.1871246 -0.0007097995        24800    13.474096    1.7801387    11.693957    14.480844   0.63051831   -3.0549828  -0.25734839  -0.10507447 
  136300        0.005     1.173277 -0.0011256894        24800    13.470283    1.7593737    11.710909    14.482367   0.62677012   -3.0300786  -0.26198306  -0.10616577 
  136400        0.005    1.1866572  0.013631938        24800    13.476891    1.7794377    11.697454    14.458477   0.64743926   -3.0481782  -0.25462905  -0.10565572 
  136500        0.005    1.1521215 -0.029162518        24800    13.485414    1.7276501    11.757764    14.498992   0.65859531   -3.0403648  -0.25492869  -0.10452979 
  136600        0.005    1.1703429 -0.030126704        24800    13.481789    1.7549738    11.726815     14.50327   0.65014129   -3.0657802  -0.25616251  -0.10465289 
  136700        0.005    1.1605211  0.028273044        24800    13.466605    1.7402458    11.726359    14.480324   0.63278004   -3.0247746  -0.25298726  -0.10898332 
  136800        0.005    1.1719412  0.025684028        24800    13.483133    1.7573706    11.725762    14.487824   0.66666848   -3.0593086  -0.25939982  -0.11002216 
  136900        0.005    1.1760974  -0.02269429        24800    13.476241     1.763603    11.712638    14.479221   0.64206997   -3.0403427  -0.26056087   -0.1077489 
  137000        0.005    1.2218691 -0.016984005        24800    13.484575    1.8322394    11.652336    14.487374    0.6646928   -3.1227605  -0.26955696  -0.10741361 
  137100        0.005    1.2068119 -0.046983405        24800     13.47796    1.8096606      11.6683    14.488693   0.65051503   -3.0917746  -0.27144415  -0.10768937 
  137200        0.005    1.1859574 -0.0013922677        24800    13.488128    1.7783884    11.709739    14.509693   0.65846792   -3.0823566  -0.26972669  -0.10633865 
  137300        0.005    1.1867506 0.0030613005        24800    13.475154    1.7795779    11.695576    14.474396   0.67052729   -3.0875876  -0.25812157   -0.1036382 
  137400        0.005    1.1832347 -0.014806929        24800    13.468812    1.7743057    11.694506    14.498882   0.65202325   -3.0954474  -0.25746399  -0.10348764 
  137500        0.005    1.1890346 -0.025548629        24800    13.469267    1.7830027    11.686265    14.485807   0.65619608   -3.0892428  -0.26377091  -0.10272444 
  137600        0.005    1.1644153 -0.022976633        24800    13.462475    1.7460853    11.716389    14.473357   0.66575909   -3.0668678  -0.25434895  -0.10150938 
  137700        0.005    1.1602778 -0.076081851        24800    13.467348    1.7398809    11.727467     14.48589   0.67423977   -3.0728075  -0.26080851 -0.099046227 
  137800        0.005    1.1875217  0.010578852        24800    13.460112    1.7807342    11.679378    14.463608   0.67254312   -3.0921813  -0.26463738 -0.099954514 
  137900        0.005    1.1864233 -0.045989941        24800    13.459095     1.779087    11.680008    14.474421   0.64674675   -3.0866418  -0.25611237 -0.098406287 
  138000        0.005    1.1769725 -0.012371165        24800    13.451701    1.7649152    11.686786    14.469614   0.65324624   -3.0805054  -0.25599177 -0.099577489 
  138100        0.005    1.1925289 -0.036624291        24800    13.456155    1.7882426    11.667913    14.485296   0.66028297   -3.1120156   -0.2665071 -0.099143699 
  138200        0.005    1.1559263 -0.082075667        24800    13.459108    1.7333557    11.725753    14.498707   0.65831444   -3.0833309  -0.24724474  -0.10069318 
  138300        0.005    1.1517659 -0.032520969        24800    13.460418     1.727117    11.733301    14.470485   0.65120067   -3.0327065  -0.25480245  -0.10087582 
  138400        0.005    1.1554353 -0.017573226        24800    13.458917    1.7326193    11.726297    14.475684    0.6426754   -3.0363736  -0.25696356 -0.098725164 
  138500        0.005     1.160791 -0.047636945        24800    13.447567    1.7406504    11.706917    14.483943   0.63462206   -3.0584483  -0.25474913 -0.098451237 
  138600        0.005    1.1551823 -0.064678997        24800    13.454672    1.7322399    11.722432    14.494159   0.65885105   -3.0733363   -0.2577041 -0.099537612 
  138700        0.005    1.1723926 -0.0045646696        24800     13.45363    1.7580475    11.695582    14.448107   0.65326392   -3.0474783  -0.25813742  -0.10017326 
  138800        0.005     1.159185  -0.03190685        24800    13.468782    1.7382421     11.73054    14.470894   0.67348558   -3.0583726  -0.25309579  -0.10237109 
  138900        0.005    1.1762899 -0.011395204        24800    13.458231    1.7638917    11.694339    14.481766   0.65818895   -3.0854739  -0.25696767  -0.10317477 
  139000        0.005    1.1792251 -0.050533819        24800    13.446275     1.768293    11.677982    14.491973   0.65690733   -3.1098467    -0.257735  -0.10331627 
  139100        0.005    1.1738656  0.019158635        24800    13.440537    1.7602562    11.680281    14.466153   0.65650994   -3.0848635  -0.25437584  -0.10314311 
  139200        0.005    1.1584667  -0.02451089        24800    13.443797    1.7371651    11.706632    14.493926   0.63829036   -3.0671447  -0.25684093  -0.10159927 
  139300        0.005    1.1680451 -0.015501864        24800    13.436994    1.7515282    11.685465    14.491682   0.64593742   -3.0910594  -0.26053468   -0.1005602 
  139400        0.005    1.1613847 -0.00089256046        24800    13.429898    1.7415407    11.688357    14.455923   0.64847309   -3.0508064  -0.26373683  -0.10149514 
  139500        0.005    1.1486051 -0.053145689        24800     13.42508    1.7223771    11.702703    14.470535   0.63607043   -3.0488472  -0.25418225  -0.10087237 
  139600        0.005    1.1350405 -0.0096599262        24800    13.428412    1.7020365    11.726376    14.470801   0.64125468   -3.0302077  -0.25457424  -0.10089829 
  139700        0.005    1.1532762 -0.024879308        24800    13.427735    1.7293817    11.698353    14.484023   0.64748217   -3.0690805  -0.26356943  -0.10050133 
  139800        0.005    1.1705852 -0.027683742        24800    13.422261    1.7553371    11.666924    14.490605   0.63953207   -3.0870413  -0.27596711  -0.10020467 
  139900        0.005    1.1781416 -0.025236702        24800    13.431844    1.7666684    11.665176    14.472318   0.65987434   -3.1048184   -0.2621313  -0.10006714 
  140000        0.005    1.1561241 0.0081354165        24800    13.422215    1.7336523    11.688563    14.489971    0.6447501   -3.0790514  -0.26416899  -0.10293842 
  140100        0.005    1.1581636 -0.028578243        24800    13.424177    1.7367105    11.687467    14.460064   0.65533063   -3.0621608  -0.26262122  -0.10314627 
  140200        0.005    1.1763224 -0.033553367        24800     13.41222    1.7639403    11.648279    14.450356   0.63819033    -3.081007  -0.25860658  -0.10065328 
  140300        0.005    1.1381152 -0.019542814        24800    13.426284    1.7066472    11.719637      14.4847   0.66327511   -3.0580311  -0.26786433   -0.1024432 
  140400        0.005    1.1453937 -0.046149939        24800    13.422289    1.7175616    11.704727     14.49217   0.64487562   -3.0671372  -0.26182823  -0.10335278 
  140500        0.005    1.1836433 -0.0096548799        24800    13.412821    1.7749184    11.637903    14.458402   0.63401941   -3.0855255  -0.26628537  -0.10270811 
  140600        0.005    1.1685584 -0.024848084        24800    13.424956     1.752298    11.672658    14.483271   0.65503833   -3.1079917  -0.25518345  -0.10247554 
  140700        0.005    1.1760061 -0.012939742        24800    13.426895    1.7634661    11.663429    14.470624   0.66989887   -3.1234532  -0.24919811  -0.10444238 
  140800        0.005    1.1907875  0.015973472        24800    13.425038    1.7856313    11.639406    14.456135   0.67808216   -3.1208485  -0.26969268  -0.10426999 
  140900        0.005    1.1571458  0.012753571        24800    13.423202    1.7351843    11.688018    14.463004   0.67151344   -3.0818141  -0.25966447  -0.10502073 
  141000        0.005    1.1360961 -0.036992341        24800     13.40707    1.7036195    11.703451    14.482449   0.65269758   -3.0674203  -0.26014692  -0.10412916 
  141100        0.005    1.1577543 -0.019758528        24800    13.410251    1.7360968    11.674154    14.494366   0.65364636   -3.1035784  -0.26503983  -0.10524011 
  141200        0.005    1.1737379 -0.032465592        24800    13.399807    1.7600648    11.639742    14.461543   0.64311965   -3.0871987  -0.27177564  -0.10594649 
  141300        0.005    1.1300571 -0.014681455        24800    13.401094    1.6945638     11.70653    14.484847   0.63842802   -3.0509342   -0.2590559  -0.10675419 
  141400        0.005    1.1523313 -0.0016110542        24800    13.408296    1.7279648    11.680332    14.489876   0.64154503   -3.0852364   -0.2576729  -0.10818033 
  141500        0.005    1.1636615   -0.0446311        24800    13.407861    1.7449548    11.662907    14.476391   0.66536543   -3.1262678  -0.24816269  -0.10441907 
  141600        0.005    1.1655878 0.0021173515        24800    13.403562    1.7478434    11.655719    14.464944   0.65404773    -3.098808  -0.25908094  -0.10538457 
  141700        0.005    1.1816549 -0.046135549        24800    13.411172    1.7719366    11.639235     14.46488   0.63594631   -3.1019157  -0.25494307  -0.10473218 
  141800        0.005    1.1832191 -0.019193699        2480