LAMMPS (10 Feb 2015)
#------------- Init Section ---------------

include "brush.init"
units 			 lj
atom_style 		 full
pair_style 		 lj/cut/coul/long 2.5 6.0
pair_modify 		 shift yes mix arithmetic
bond_style 		 fene
angle_style 		 cosine/delta
boundary 		 p p f
neighbor 		 0.5 bin
neigh_modify 		 every 1 delay 3 check yes one 10000
kspace_style 		 pppm   0.0001
kspace_modify 		 slab   3.0
special_bonds 		 fene

#------------- Particle Definitions ------------

read_data "brush.data"
  orthogonal box = (0 0 0) to (15 15 62)
  1 by 1 by 4 MPI processor grid
  reading atoms ...
  3226 atoms
  scanning bonds ...
  2 = max bonds/atom
  scanning angles ...
  3 = max angles/atom
  reading bonds ...
  2250 bonds
  reading angles ...
  2850 angles
  3 = max # of 1-2 neighbors
  3 = max # of special neighbors
#------------- Settings Section -----------

include "brush.settings"
#Non-bonded interactions (pair-wise)
pair_coeff 1 1 0.0 1.0
pair_coeff 1 2 0.0 1.0
pair_coeff 1 3 0.0 1.0
pair_coeff 1 4 0.0 1.0
pair_coeff 1 5 0.0 1.0
pair_coeff 1 6 0.0 1.0
pair_coeff 2 2 1.0 1.0
pair_coeff 2 3 1.0 1.0
pair_coeff 2 4 1.0 1.0
pair_coeff 2 5 1.0 1.0
pair_coeff 2 6 1.0 1.0
pair_coeff 3 3 1.0 1.0
pair_coeff 3 4 1.0 1.0
pair_coeff 3 5 1.0 1.0
pair_coeff 3 6 1.0 1.0
pair_coeff 4 4 1.0 1.0
pair_coeff 4 5 1.0 1.0
pair_coeff 4 6 1.0 1.0
pair_coeff 5 5 1.0 1.0
pair_coeff 5 6 1.0 1.0
pair_coeff 6 6 1.0 1.0

#FENE Stretching Interactions
#bond_coeff bondtype k R0 epsilon sigma
bond_coeff 1 30.0 1.5 1.0 1.0


#Harmonic Angle Interaction
angle_coeff 1 15.0 180.0
angle_coeff 2 10.0 90.0
#------------- Run Section -----------

thermo 100
thermo_style custom step dt temp press vol etotal ke pe ebond eangle evdwl ecoul elong
run_style verlet
timestep 0.01

#SIMULATION BOX FIXES

group substrates type 1
200 atoms in group substrates
group bot_substr id <= 100
100 atoms in group bot_substr
group top_substr subtract substrates bot_substr
100 atoms in group top_substr
group polymers type 2:3
2250 atoms in group polymers
group ctr_ions type 4
750 atoms in group ctr_ions
group salt subtract all substrates polymers ctr_ions
26 atoms in group salt
group dump_group subtract all top_substr
3126 atoms in group dump_group
fix 1 substrates setforce 0.0 0.0 0.0
group not_substr subtract all substrates
3026 atoms in group not_substr
fix wall1 not_substr wall/lj126 zlo EDGE 1.0 1.0 2.5
fix wall2 not_substr wall/lj126 zhi EDGE 1.0 1.0 2.5

#Minimize the simulation box.
minimize 1.0e-4 1.0e-4 2000 2000
WARNING: Resetting reneighboring criteria during minimization (../min.cpp:168)
PPPM initialization ...
  G vector (1/distance) = 0.464239
  grid = 18 18 120
  stencil order = 5
  estimated absolute RMS force accuracy = 0.000110855
  estimated relative force accuracy = 0.000110855
  using double precision FFTs
  3d grid and FFT values/proc = 48668 29160
Neighbor list info ...
  1 neighbor list requests
  update every 1 steps, delay 0 steps, check yes
  master list distance cutoff = 6.5
Memory usage per processor = 10.1862 Mbytes
Step Dt Temp Press Volume TotEng KinEng PotEng E_bond E_angle E_vdwl E_coul E_long 
       0         0.01            0    7449.7666        13950    8019.6309            0    8019.6309    7506.2279            0    487.78374  0.013145344    25.606144 
     100         0.01            0  0.063846042        13950    31.422704            0    31.422704    14.278115   0.48078148   -1.5823809 -0.010048455    18.256237 
     200         0.01            0  -0.49119391        13950    24.708966            0    24.708966     14.55471   0.48612332   -1.7940903 -0.027808831    11.490031 
     300         0.01            0  -0.90534063        13950    20.205896            0    20.205896    14.713079   0.41108071   -2.0726677 -0.038266362    7.1926708 
     400         0.01            0   -1.0442699        13950    16.908458            0    16.908458    14.784677   0.36892483   -2.4775402 -0.039758637    4.2721555 
     500         0.01            0   -1.0279564        13950    14.838525            0    14.838525    14.691764   0.34092608   -2.8994137 -0.046815724    2.7520637 
     600         0.01            0  -0.84613573        13950    13.199123            0    13.199123    14.468323   0.32138576   -3.2997198 -0.052597477    1.7617318 
     700         0.01            0  -0.57487906        13950    12.062348            0    12.062348    14.259429   0.29914223   -3.6314263  -0.05445719    1.1896604 
     800         0.01            0  -0.36572491        13950    11.364426            0    11.364426    14.162039   0.29755207   -3.8891089 -0.061385866   0.85532957 
     900         0.01            0  -0.26165167        13950    10.943071            0    10.943071     14.14039   0.29056214   -4.0696363 -0.064672095   0.64642757 
    1000         0.01            0  -0.19482462        13950    10.646132            0    10.646132    14.130286   0.29752484   -4.2012505 -0.070256257   0.48982769 
    1100         0.01            0  -0.15836989        13950    10.441764            0    10.441764    14.128678    0.3090754    -4.325312  -0.07587741   0.40519957 
    1187         0.01            0  -0.11984247        13950    10.300488            0    10.300488    14.125216   0.30801287   -4.4043488 -0.077550197   0.34915849 
Loop time of 27.0549 on 4 procs for 1187 steps with 3226 atoms

Minimization stats:
  Stopping criterion = energy tolerance
  Energy initial, next-to-last, final = 
         8019.63090421      10.3014643089      10.3004879466
  Force two-norm initial, final = 1.57748e+07 92.7962
  Force max component initial, final = 398780 29.0114
  Final line search alpha, max atom move = 0.00221588 0.0642857
  Iterations, force evaluations = 1187 1988

Pair  time (%) = 8.67854 (32.0775)
Bond  time (%) = 0.147352 (0.544642)
Kspce time (%) = 14.8732 (54.974)
Neigh time (%) = 3.05769 (11.3018)
Comm  time (%) = 0.178982 (0.661551)
Outpt time (%) = 0.000276923 (0.00102356)
Other time (%) = 0.1189 (0.439475)

Nlocal:    806.5 ave 1682 max 26 min
Histogram: 2 0 0 0 0 0 0 0 1 1
Nghost:    3382.5 ave 6227 max 390 min
Histogram: 1 1 0 0 0 0 0 0 1 1
Neighs:    226108 ave 528432 max 124 min
Histogram: 2 0 0 0 0 0 0 1 0 1

Total # of neighbors = 904431
Ave neighs/atom = 280.357
Ave special neighs/atom = 1.39492
Neighbor list builds = 304
Dangerous builds = 0

#Run NVT Equilibration
velocity not_substr create 1.2 67802659
fix 10 not_substr nve
fix 2 not_substr langevin 1.2 1.2 100.0 986537
dump 1 dump_group custom 1000 equil.trj id type x y z
run 100000
PPPM initialization ...
  G vector (1/distance) = 0.464239
  grid = 18 18 120
  stencil order = 5
  estimated absolute RMS force accuracy = 0.000110855
  estimated relative force accuracy = 0.000110855
  using double precision FFTs
  3d grid and FFT values/proc = 48668 29160
Neighbor list info ...
  1 neighbor list requests
  update every 1 steps, delay 3 steps, check yes
  master list distance cutoff = 6.5
Memory usage per processor = 9.06411 Mbytes
Step Dt Temp Press Volume TotEng KinEng PotEng E_bond E_angle E_vdwl E_coul E_long 
    1187         0.01    1.1255814   0.14037259        13950    11.988337    1.6878487    10.300488    14.125216   0.30801287   -4.4043488 -0.077550197   0.34915849 
    1200         0.01   0.54459444   0.56726416        13950    12.005749   0.81663844    11.189111    14.393554   0.48237108    -3.963695 -0.074956427   0.35183695 
    1300         0.01   0.54247778   -0.2038095        13950     12.01492   0.81346443    11.201455    14.315524   0.37306091   -3.7118777 -0.071420019   0.29616833 
    1400         0.01    0.6063408 -0.075948133        13950    12.033575   0.90922927    11.124346    14.314337   0.40381108   -3.7384865 -0.072338232   0.21702224 
    1500         0.01    0.6482981 -0.063584934        13950    12.049793   0.97214571    11.077647    14.333214    0.4136681    -3.740667 -0.071971927   0.14340363 
    1600         0.01   0.68677236 -0.027283398        13950    12.056404    1.0298392    11.026565    14.340572   0.41740412   -3.7291184 -0.075097222  0.072804617 
    1700         0.01   0.71704101 -0.036691478        13950    12.074738    1.0752281     10.99951    14.346767   0.42616638   -3.7141942 -0.073871584  0.014641769 
    1800         0.01   0.73872715  0.066914321        13950    12.084861    1.1077472    10.977114    14.360291   0.42940083   -3.7109703 -0.069878676 -0.031729019 
    1900         0.01   0.74901158  0.016321651        13950    12.097181    1.1231691    10.974012    14.362888   0.46199483   -3.7187554 -0.073825066 -0.058291163 
    2000         0.01   0.76041811 -0.0069273958        13950    12.104065    1.1402736    10.963792     14.37214    0.4445545    -3.696578 -0.077284161  -0.07904012 
    2100         0.01   0.76491953  0.031860899        13950    12.112843    1.1470236    10.965819    14.365982   0.47351869   -3.7034378 -0.081125448 -0.089118363 
    2200         0.01   0.76164687  0.061948471        13950    12.130742    1.1421162    10.988626    14.381428   0.45916494   -3.6717931 -0.085287533 -0.094886397 
    2300         0.01   0.77695134 -0.037040283        13950    12.148305    1.1650657    10.983239    14.372386   0.48890735   -3.6913076 -0.087709353 -0.099037611 
    2400         0.01   0.76337407 -0.062295821        13950    12.152484    1.1447062    11.007778    14.385316   0.45572004   -3.6522981 -0.082025327 -0.098934766 
    2500         0.01   0.78702731 -0.046020984        13950      12.1595     1.180175    10.979325    14.379212   0.44659886   -3.6608456 -0.086056759 -0.099583284 
    2600         0.01   0.76912425 -0.077551303        13950    12.176204    1.1533288    11.022875    14.390276   0.45280016   -3.6368889 -0.083510563 -0.099801447 
    2700         0.01    0.7764156 -0.033714252        13950    12.185793    1.1642624    11.021531    14.391147   0.43267337   -3.6140176 -0.085352554  -0.10291958 
    2800         0.01   0.77802526 0.0093143772        13950    12.202072    1.1666761    11.035396    14.404437   0.44683823   -3.6282181 -0.084444526  -0.10321674 
    2900         0.01   0.79100543 -0.092524395        13950     12.21084    1.1861404      11.0247    14.397196   0.44931887   -3.6353514 -0.083879675  -0.10258411 
    3000         0.01   0.80264647 -0.037050672        13950    12.211444    1.2035965    11.007847    14.391984   0.46753153   -3.6633275  -0.08528171  -0.10305861 
    3100         0.01   0.78293131 -0.038839138        13950    12.222194    1.1740329    11.048161    14.400175   0.45954589   -3.6211431 -0.086175297  -0.10424125 
    3200         0.01   0.80518877 -0.076185784        13950    12.238965    1.2074088    11.031556    14.387072    0.4646451   -3.6293693 -0.084985944   -0.1058057 
    3300         0.01   0.81756836 -0.011445073        13950    12.246854    1.2259724    11.020881    14.386045   0.46449275   -3.6417077 -0.081742474  -0.10620618 
    3400         0.01   0.78276561 -0.076003199        13950    12.253382    1.1737845    11.079597    14.397468   0.45912103   -3.5845451 -0.084453753  -0.10799295 
    3500         0.01   0.81352696 -0.051841969        13950    12.268243    1.2199122     11.04833    14.398903   0.47474261   -3.6320364 -0.085765015  -0.10751386 
    3600         0.01   0.81160951 -0.0044158406        13950    12.281661    1.2170369    11.064624    14.398255   0.47175876   -3.6133429   -0.0840589  -0.10798859 
    3700         0.01   0.80345378 -0.039841427        13950    12.301181    1.2048071    11.096374    14.424114   0.46692966   -3.6005687 -0.086061276  -0.10803958 
    3800         0.01   0.82037863  -0.11197976        13950    12.311004    1.2301865    11.080817    14.409486   0.45306214   -3.5862829 -0.086564019   -0.1088842 
    3900         0.01   0.80621668 -0.0060340484        13950     12.32492    1.2089501     11.11597    14.423403    0.4778776   -3.5980944 -0.079937135  -0.10727942 
    4000         0.01   0.82459939 -0.060085048        13950    12.333564    1.2365157    11.097048      14.4226    0.4553949   -3.5931893 -0.080662828  -0.10709473 
    4100         0.01   0.81421462 -0.031903932        13950    12.342208    1.2209433    11.121265    14.398606   0.47546264   -3.5634911 -0.081079254  -0.10823317 
    4200         0.01   0.81544151  -0.10612103        13950      12.3523    1.2227831    11.129517    14.420565    0.4531217   -3.5514536 -0.082944346  -0.10977224 
    4300         0.01   0.82536197 -0.022993574        13950    12.364292    1.2376592    11.126633     14.42589   0.43841254   -3.5461412 -0.082680158   -0.1088482 
    4400         0.01   0.81089326 -0.096671649        13950    12.368875    1.2159629    11.152912    14.421384   0.45850015   -3.5366565 -0.082383451  -0.10793208 
    4500         0.01   0.83052093  -0.12593575        13950    12.377668    1.2453952    11.132273    14.417794   0.46077256   -3.5489221 -0.087583381  -0.10978799 
    4600         0.01   0.83077787 0.00092744316        13950    12.389361    1.2457805    11.143581    14.426739   0.45431368   -3.5424236 -0.084699944  -0.11034787 
    4700         0.01   0.81897951 -0.067155489        13950    12.395411    1.2280885    11.167322    14.426881   0.46787117   -3.5319994 -0.085716935  -0.10971331 
    4800         0.01   0.81992113 -0.021988945        13950    12.398412    1.2295004    11.168911    14.425415   0.48160255    -3.541247 -0.086927611  -0.10993211 
    4900         0.01   0.85179519  -0.06187911        13950    12.416446    1.2772967    11.139149    14.419801   0.48577561    -3.566568  -0.09082764  -0.10903146 
    5000         0.01   0.84327797 -0.050331557        13950    12.421739    1.2645249    11.157214    14.416315   0.47012008   -3.5324212 -0.087960806  -0.10883892 
    5100         0.01   0.85263719 -0.070074159        13950     12.43046    1.2785593    11.151901    14.430466   0.47408943   -3.5554593  -0.08839697  -0.10879863 
    5200         0.01    0.8593445 -0.0042202252        13950    12.439872    1.2886172    11.151254    14.419303   0.47117537   -3.5413467 -0.088733448  -0.10914383 
    5300         0.01   0.85163297  -0.04781338        13950    12.450511    1.2770535    11.173458     14.43535   0.48280742   -3.5494155 -0.087976557  -0.10730702 
    5400         0.01   0.86845827 -0.039549075        13950    12.463326    1.3022836    11.161043    14.417705   0.48139154   -3.5440182 -0.088416134   -0.1056197 
    5500         0.01   0.86009578 -0.033775528        13950    12.473635    1.2897438    11.183891    14.414221    0.4996342   -3.5391251 -0.084437851  -0.10640108 
    5600         0.01   0.84150016 -0.094637499        13950    12.478749     1.261859     11.21689    14.428358    0.4887655   -3.5089119 -0.085593115  -0.10572926 
    5700         0.01   0.88348699  -0.08788724        13950    12.489907    1.3248197    11.165088    14.425171   0.48396286   -3.5553064 -0.084568457  -0.10417129 
    5800         0.01   0.84641317 -0.054416832        13950     12.49718    1.2692262    11.227954    14.428317   0.49615278   -3.5111984 -0.081516759  -0.10380007 
    5900         0.01   0.88285322 -0.028355596        13950    12.510655    1.3238693    11.186785    14.424615   0.47606114   -3.5302743 -0.079973158  -0.10364278 
    6000         0.01   0.87512272    -0.127657        13950    12.530869    1.3122772    11.218591    14.408213   0.49973335   -3.5018162 -0.082126894  -0.10541214 
    6100         0.01   0.87814558  0.014983381        13950    12.541511    1.3168101    11.224701    14.437527   0.49529451   -3.5220856 -0.080116408  -0.10591895 
    6200         0.01   0.88668408 -0.022782551        13950    12.546389    1.3296138    11.216775    14.440678   0.48282731   -3.5185985 -0.081709429  -0.10642254 
    6300         0.01   0.88086095 -0.058102526        13950    12.551045    1.3208819    11.230163    14.432356   0.47862969   -3.4919435 -0.082517895  -0.10636145 
    6400         0.01   0.88793508 -0.040730904        13950    12.561954    1.3314898    11.230464    14.438444   0.48789863   -3.5079624  -0.08183271  -0.10608318 
    6500         0.01   0.88626065 -0.048864194        13950    12.570033    1.3289789    11.241054    14.436933   0.48188402   -3.4856976 -0.084849964  -0.10721491 
    6600         0.01   0.89606901  -0.13222699        13950    12.575197    1.3436869     11.23151    14.424023   0.48599495   -3.4875877 -0.083453452  -0.10746709 
    6700         0.01   0.89579097 -0.085286249        13950     12.58845    1.3432699     11.24518     14.42729   0.50964928   -3.5018272  -0.08203454  -0.10789794 
    6800         0.01   0.89244504 -0.021052354        13950    12.598395    1.3382526    11.260142      14.4451   0.49812075   -3.4962088 -0.080797448   -0.1060724 
    6900         0.01    0.8860718 -0.027039985        13950    12.587598    1.3286957    11.258902    14.430104   0.51120104   -3.4974064 -0.078920173  -0.10607687 
    7000         0.01   0.88189632 -0.065052172        13950    12.595866    1.3224344    11.273432    14.441544   0.47376919   -3.4552487 -0.079759167  -0.10687321 
    7100         0.01   0.88637333 -0.054109678        13950     12.61035    1.3291479    11.281202     14.45014   0.49337587   -3.4798056 -0.078001377  -0.10450742 
    7200         0.01   0.89966692 -0.0027000603        13950    12.616467    1.3490821    11.267385    14.438951   0.51330682   -3.4995367 -0.078492485  -0.10684448 
    7300         0.01   0.88971729 -0.085826228        13950    12.617699    1.3341622    11.283537    14.441359   0.50821319    -3.481018  -0.07943807  -0.10557985 
    7400         0.01   0.88777596 -0.033452911        13950    12.626772    1.3312512    11.295521    14.430734   0.48894879   -3.4369989 -0.081846946  -0.10531574 
    7500         0.01   0.90104666 -0.055005418        13950    12.632054     1.351151    11.280903    14.432699   0.50521055    -3.465071 -0.085398744  -0.10653656 
    7600         0.01   0.90432244  -0.02405425        13950    12.651986    1.3560632    11.295923    14.439773   0.50634522   -3.4599487 -0.085156245  -0.10509028 
    7700         0.01   0.88599649 -0.053256984        13950    12.654696    1.3285828    11.326113    14.433639   0.50889175   -3.4297308 -0.081266132  -0.10542068 
    7800         0.01   0.90487675 -0.068317309        13950     12.66418    1.3568944    11.307286    14.444053   0.49769065   -3.4487858 -0.078928086  -0.10674374 
    7900         0.01   0.92245606  -0.05946442        13950     12.66631    1.3832552    11.283055    14.423961   0.50678575   -3.4580041 -0.082840896  -0.10684626 
    8000         0.01   0.91291974 -0.063367751        13950    12.671881    1.3689551    11.302926    14.441462   0.49309239   -3.4430839 -0.082004794  -0.10653953 
    8100         0.01   0.91109342  0.023122785        13950    12.673359    1.3662165    11.307142    14.451488   0.51457488   -3.4734519 -0.078849488  -0.10661884 
    8200         0.01   0.91906925 -0.034840904        13950    12.688354    1.3781765    11.310178    14.441751   0.52104617   -3.4609607 -0.084975631  -0.10668343 
    8300         0.01   0.90925161 -0.057320963        13950     12.69276    1.3634546    11.329306    14.440201   0.49786365   -3.4242868 -0.080084735  -0.10438768 
    8400         0.01   0.90303494 -0.036415485        13950    12.692747    1.3541325    11.338615    14.444693   0.51848905   -3.4357924  -0.08315438  -0.10562011 
    8500         0.01   0.91599316 -0.029812968        13950    12.713186    1.3735638    11.339622       14.452   0.49745032   -3.4289831 -0.074941122  -0.10590361 
    8600         0.01   0.91892981  -0.03261677        13950    12.714125    1.3779674    11.336157    14.449952   0.50734409   -3.4307901 -0.082058273   -0.1082904 
    8700         0.01   0.92810156 0.0010987862        13950    12.713528    1.3917208    11.321808    14.447334   0.50466233   -3.4387471 -0.083588536  -0.10785327 
    8800         0.01   0.91194244 -0.0039849827        13950    12.718854    1.3674896    11.351364    14.449477   0.49826721   -3.4085083 -0.081048991  -0.10682255 
    8900         0.01   0.91395366 -0.066619963        13950    12.722935    1.3705055    11.352429    14.442697   0.49788757    -3.397316  -0.08267398  -0.10816562 
    9000         0.01   0.91753826 -0.035092952        13950    12.735916    1.3758808    11.360035    14.448817   0.50962577    -3.404469 -0.086818571  -0.10712036 
    9100         0.01   0.91431849 -0.072233455        13950    12.749645    1.3710526    11.378592    14.449622    0.5138195   -3.3951145 -0.082329011  -0.10740615 
    9200         0.01   0.91330477  -0.04381293        13950    12.759283    1.3695325     11.38975     14.45781   0.50830384   -3.3875785 -0.082471138  -0.10631432 
    9300         0.01    0.9241431 -0.0021425547        13950    12.757544    1.3857849    11.371759    14.437143     0.527222   -3.4089265 -0.077931448  -0.10574746 
    9400         0.01   0.91004741 -0.071066318        13950    12.758332     1.364648    11.393684     14.46005   0.52483351   -3.4054093 -0.079751387  -0.10603929 
    9500         0.01   0.91340096 -0.086962075        13950    12.761611    1.3696767    11.391935    14.470784   0.53558742   -3.4327857 -0.075207379  -0.10644388 
    9600         0.01   0.93187836 -0.066977616        13950    12.766767    1.3973842    11.369383    14.456095     0.520549    -3.424593 -0.076733224   -0.1059349 
    9700         0.01   0.94581563  0.016588781        13950    12.775511    1.4182837    11.357227    14.450487   0.51286726   -3.4213793 -0.079016508  -0.10573153 
    9800         0.01   0.93143702  -0.12780043        13950    12.788924    1.3967224    11.392202    14.443948   0.52971057   -3.4047265 -0.072160075  -0.10457046 
    9900         0.01   0.93388109 -0.083175308        13950    12.795162    1.4003874    11.394775    14.458639   0.52117563    -3.402488 -0.076472024  -0.10607999 
   10000         0.01   0.94311886  0.035538287        13950    12.801564    1.4142398    11.387324    14.440535   0.54217778   -3.4100514 -0.079411728  -0.10592586 
   10100         0.01   0.93344407 -0.073626973        13950    12.812727    1.3997321    11.412995    14.453422   0.53400722   -3.3889708 -0.079219131  -0.10624412 
   10200         0.01   0.91987081 -0.031956653        13950    12.818453    1.3793785    11.439075    14.455962   0.54237989   -3.3750606 -0.077944892  -0.10626163 
   10300         0.01   0.96469816 -0.0067248535        13950    12.826122    1.4465987    11.379523    14.455972   0.53131724   -3.4246129 -0.078660723  -0.10449271 
   10400         0.01   0.94142268 -0.070450641        13950    12.825356    1.4116963     11.41366    14.455389   0.52498177   -3.3898739 -0.072403444  -0.10443367 
   10500         0.01    0.9290623  0.014375566        13950    12.840452    1.3931615    11.447291    14.460359   0.56934271   -3.3991153 -0.079623784  -0.10367156 
   10600         0.01   0.95542875 -0.0016760038        13950    12.852993    1.4326989    11.420294    14.448999   0.54764704   -3.3976617 -0.075502323  -0.10318831 
   10700         0.01    0.9523587 -0.070725813        13950    12.862929    1.4280952    11.434833    14.459738   0.53971354   -3.3795235 -0.081667171  -0.10342785 
   10800         0.01   0.95750324  0.003648998        13950    12.867972    1.4358096    11.432163    14.470238   0.51514011     -3.36717 -0.081705241  -0.10433998 
   10900         0.01   0.95984811  0.046735631        13950    12.876165    1.4393259    11.436839    14.458271   0.52608731   -3.3617545 -0.079590726  -0.10617365 
   11000         0.01   0.96094482 -0.079814261        13950    12.878421    1.4409704     11.43745    14.479465   0.54601068    -3.395875 -0.084024404  -0.10812648 
   11100         0.01   0.97481881 -0.078887206        13950    12.883607     1.461775    11.421832     14.44568   0.55208887   -3.3853674 -0.082574594  -0.10799505 
   11200         0.01   0.95028786 -0.076890886        13950    12.889316    1.4249899    11.464326    14.471633   0.54466803   -3.3597203 -0.083623196  -0.10863174 
   11300         0.01   0.96922877  -0.05715101        13950    12.897298    1.4533925    11.443906    14.453916    0.5414803   -3.3624605 -0.081532736  -0.10749736 
   11400         0.01   0.97040493 -0.0076518674        13950    12.907814    1.4551562    11.452658    14.452898   0.53176459   -3.3440083 -0.080825278  -0.10717159 
   11500         0.01   0.96246737  -0.07108911        13950    12.915936    1.4432535    11.472682    14.471049   0.52917891   -3.3462733  -0.07752561  -0.10374687 
   11600         0.01   0.97394084 0.0033849801        13950    12.924395    1.4604584    11.463936     14.45454   0.53729887   -3.3420357 -0.081612123  -0.10425433 
   11700         0.01   0.97118458 -0.078845172        13950    12.931441    1.4563253    11.475116    14.469831   0.55305472   -3.3671669 -0.077518612  -0.10308396 
   11800         0.01   0.98453894 -0.057032612        13950    12.932681    1.4763506     11.45633    14.460613   0.55688366    -3.375741 -0.080645854  -0.10477895 
   11900         0.01   0.98909883 0.0066494481        13950    12.937226    1.4831883    11.454037    14.482188    0.5256097   -3.3631818 -0.083553621  -0.10702538 
   12000         0.01   0.98028456  0.021254016        13950     12.94492     1.469971    11.474949    14.485446   0.54500417   -3.3693474 -0.081027711  -0.10512611 
   12100         0.01   0.96505106 -0.063497163        13950    12.959199    1.4471279    11.512071    14.491211    0.5563677   -3.3478445  -0.08196308  -0.10569989 
   12200         0.01   0.99099589 -0.083251285        13950    12.964835     1.486033    11.478802    14.463894   0.55815151   -3.3617311 -0.078212965  -0.10329883 
   12300         0.01   0.99726043  0.022906792        13950    12.969671    1.4954269    11.474244    14.491699   0.54805774   -3.3854137 -0.078382962  -0.10171542 
   12400         0.01   0.99680187  -0.11445132        13950    12.961475    1.4947393    11.466736    14.469384   0.53242897   -3.3566014 -0.075403814  -0.10307215 
   12500         0.01    1.0252192   -0.0676104        13950    12.965661    1.5373522    11.428309    14.454439   0.53004602   -3.3767858 -0.076781145  -0.10260869 
   12600         0.01     1.000962  -0.07960566        13950     12.96161    1.5009776    11.460632     14.47555   0.55119743   -3.3819318 -0.080310355   -0.1038725 
   12700         0.01   0.98013728 -0.0020371317        13950    12.959761    1.4697502    11.490011    14.479235   0.53600535   -3.3415548 -0.079752964  -0.10392156 
   12800         0.01   0.96981761 -0.033420101        13950    12.966724    1.4542755    11.512449    14.469307   0.55664762   -3.3306331  -0.07953926  -0.10333348 
   12900         0.01   0.97810902 -0.039814397        13950     12.97484    1.4667087    11.508131    14.491131   0.53348571   -3.3386687 -0.076343361  -0.10147339 
   13000         0.01    0.9925146 -0.023764196        13950    12.982649    1.4883104    11.494338     14.48081   0.56763287   -3.3686033 -0.081839835  -0.10366159 
   13100         0.01   0.98385208 -0.031475241        13950    12.981505    1.4753207    11.506184    14.487568   0.55941919   -3.3545536 -0.080501074  -0.10574846 
   13200         0.01   0.98865467 -0.065397082        13950    12.978769    1.4825223    11.496247    14.461843   0.55040154   -3.3312265 -0.078968245  -0.10580306 
   13300         0.01   0.98647973  -0.14643124        13950    12.993996    1.4792609    11.514736    14.470386   0.56716874   -3.3365428 -0.080334316  -0.10594222 
   13400         0.01   0.97328671  0.044707928        13950     12.99009    1.4594775    11.530612    14.487604   0.52900944   -3.2981346 -0.081294065   -0.1065731 
   13500         0.01   0.97046259 -0.011575777        13950    12.997276    1.4552426    11.542034    14.475945   0.54764417   -3.2969889 -0.079993176  -0.10457372 
   13600         0.01   0.97042096 -0.015190098        13950    12.979672    1.4551802    11.524492    14.484758   0.55045514   -3.3324652 -0.076026656  -0.10222949 
   13700         0.01   0.95678557 -0.088817743        13950    13.000601    1.4347335    11.565868    14.495508   0.56301578   -3.3077674 -0.080151042  -0.10473797 
   13800         0.01    1.0109776 -0.046850739        13950    13.005041    1.5159963    11.489045    14.464159   0.55993345   -3.3470625 -0.082485314   -0.1054996 
   13900         0.01   0.99800831 -0.034958967        13950    13.004193    1.4965484    11.507645    14.479467   0.55572418   -3.3412142 -0.081221621  -0.10511081 
   14000         0.01   0.98040917 -0.032851759        13950    13.011549    1.4701579    11.541392    14.471432   0.55568962   -3.3039968 -0.079706829  -0.10202647 
   14100         0.01   0.99952374 -0.026626274        13950    13.010622    1.4988209    11.511801    14.467824   0.55474738   -3.3258116 -0.080804681  -0.10415376 
   14200         0.01    1.0089361 -0.027949271        13950    13.009548     1.512935    11.496613     14.46046   0.53994559   -3.3184275 -0.078637296  -0.10672842 
   14300         0.01    1.0009324 -0.0079059676        13950    13.024745    1.5009332    11.523812    14.472123   0.57397281   -3.3383459 -0.078578652  -0.10535908 
   14400         0.01   0.98370964 -0.020874033        13950    13.024366    1.4751071    11.549258    14.486342   0.55444536   -3.3038632 -0.081205404  -0.10646025 
   14500         0.01    1.0052092 -0.066132591        13950    13.030961    1.5073463    11.523615    14.455847   0.57131683   -3.3099233 -0.086042538  -0.10758312 
   14600         0.01    1.0108604 -0.069992703        13950    13.040834    1.5158206    11.525013     14.48397   0.55509596   -3.3250378 -0.080870981  -0.10814394 
   14700         0.01   0.97639167 -0.002940074        13950    13.041839    1.4641335    11.577705    14.481986   0.57734698   -3.2923627 -0.082190106  -0.10707486 
   14800         0.01   0.98770431 -0.058636991        13950    13.047277    1.4810972     11.56618    14.498113   0.55120714   -3.2950799 -0.080229836  -0.10783038 
   14900         0.01    1.0019112 -0.0076223205        13950    13.049359    1.5024009    11.546959    14.470138   0.56628344   -3.3000081 -0.080763278  -0.10869147 
   15000         0.01    1.0096518 -0.024670659        13950    13.052434    1.5140083    11.538426    14.485185   0.56925176   -3.3215659 -0.085310036  -0.10913483 
   15100         0.01   0.99537972  0.047651235        13950    13.055092    1.4926068    11.562485    14.477077    0.5791747    -3.307661 -0.080029432   -0.1060758 
   15200         0.01    1.0044742 -0.033023198        13950    13.062649    1.5062442    11.556404    14.484388   0.54804569   -3.2952191 -0.075898616  -0.10491138 
   15300         0.01     1.020921 -0.042727007        13950    13.064853    1.5309067    11.533947    14.472118   0.56629084   -3.3157135  -0.08171213  -0.10703635 
   15400         0.01    1.0002652 -0.019736418        13950    13.077753    1.4999328     11.57782    14.486085   0.57990057   -3.2996759 -0.082024791  -0.10646484 
   15500         0.01    1.0112007 -0.029074751        13950    13.084049    1.5163309    11.567718    14.514985   0.56931106   -3.3276523 -0.082305697  -0.10661974 
   15600         0.01    1.0191383 -0.061054172        13950    13.083117    1.5282336    11.554883    14.517972   0.56121059   -3.3397506 -0.078851538  -0.10569708 
   15700         0.01    1.0189006 -0.0048357636        13950     13.07757    1.5278772    11.549693    14.485271    0.5660986   -3.3124732   -0.0813554  -0.10784808 
   15800         0.01    1.0269432 -0.097830367        13950    13.087786    1.5399374    11.547849    14.496075   0.57400513   -3.3315761 -0.082870897  -0.10778449 
   15900         0.01     1.040935 -0.034718044        13950    13.090335    1.5609185    11.529416    14.484759   0.55589021   -3.3206027 -0.083489411   -0.1071408 
   16000         0.01    1.0170955 -0.029696879        13950     13.10475    1.5251703     11.57958    14.497198    0.5720696   -3.2946029 -0.086786878  -0.10829854 
   16100         0.01    1.0313128 -0.075975499        13950    13.104756    1.5464897    11.558266    14.492114   0.57231288    -3.315164 -0.083999188  -0.10699758 
   16200         0.01    1.0249245 -0.0059709295        13950    13.110503    1.5369102    11.573593    14.490765   0.59414728   -3.3238622 -0.080865895  -0.10659107 
   16300         0.01    1.0350176 -0.050444583        13950    13.113007    1.5520451    11.560962    14.499575   0.57813338   -3.3233605 -0.085744293   -0.1076417 
   16400         0.01    1.0114576 0.0062304297        13950     13.12351     1.516716    11.606794    14.513367   0.56512432   -3.2847063 -0.080015581  -0.10697534 
   16500         0.01    1.0005241 -0.053473163        13950    13.130762     1.500321    11.630441    14.491292   0.57288553   -3.2554878 -0.076328461  -0.10191999 
   16600         0.01    1.0243152 -0.043841968        13950    13.147354    1.5359966    11.611357    14.471965   0.57757195   -3.2593078 -0.076107834  -0.10276408 
   16700         0.01   0.99459882 -0.075929951        13950    13.139993    1.4914358    11.648557     14.50877   0.56525251   -3.2456306 -0.075759839  -0.10407493 
   16800         0.01    1.0098634  0.027513014        13950    13.143722    1.5143256    11.629396    14.487413   0.57945227    -3.259536 -0.075494846  -0.10243802 
   16900         0.01    1.0294166 -0.072911842        13950    13.146175    1.5436463    11.602529    14.467393   0.55594338   -3.2451691 -0.073472255  -0.10216587 
   17000         0.01    1.0249973 -0.034682326        13950    13.152538    1.5370194    11.615518    14.487897   0.55908322   -3.2535394 -0.074024443  -0.10389823 
   17100         0.01    1.0053667 -0.098816172        13950    13.152225    1.5075826    11.644643    14.489048   0.56532474   -3.2338898 -0.071491006  -0.10434926 
   17200         0.01    1.0137269 -0.046082403        13950    13.161567    1.5201191    11.641448    14.497366   0.55260601   -3.2297392 -0.075519788  -0.10326552 
   17300         0.01    1.0087899 -0.019311829        13950    13.164072    1.5127159    11.651357    14.495213   0.58266141   -3.2455428 -0.076758073  -0.10421663 
   17400         0.01    1.0246462 -0.0025423128        13950    13.159745    1.5364928    11.623252    14.484532   0.57436676   -3.2571398  -0.07534834  -0.10315807 
   17500         0.01    1.0316939 -0.099651493        13950    13.167644    1.5470611    11.620583    14.508809   0.56562106   -3.2701279  -0.07835143  -0.10536709 
   17600         0.01    1.0287219 -0.052678334        13950    13.177707    1.5426045    11.635103    14.485878   0.56836972   -3.2352804 -0.079980083  -0.10388427 
   17700         0.01    1.0331422 -0.063000672        13950     13.18193    1.5492329    11.632697    14.479378   0.59965149   -3.2666789 -0.075097452  -0.10455656 
   17800         0.01     1.034408 -0.088050271        13950    13.187747     1.551131    11.636616    14.481302   0.60826675   -3.2732983 -0.075447248  -0.10420676 
   17900         0.01    1.0349048 -0.064217992        13950    13.189825     1.551876     11.63795    14.485209   0.60759225   -3.2734741 -0.077018712  -0.10435906 
   18000         0.01    1.0436165 -0.031640507        13950    13.191081    1.5649395    11.626142    14.507224   0.58996401   -3.2873147 -0.080990099  -0.10274093 
   18100         0.01    1.0324442 -0.064989921        13950    13.191081    1.5481862    11.642895    14.501322   0.58046019   -3.2584072 -0.077346732  -0.10313401 
   18200         0.01    1.0256597 -0.0099919512        13950    13.190633    1.5380127     11.65262    14.491492   0.57624228   -3.2346771 -0.076660749  -0.10377581 
   18300         0.01    1.0406048 -0.027815899        13950    13.197069    1.5604234    11.636645    14.493937   0.57492292   -3.2512995 -0.076312185   -0.1046028 
   18400         0.01    1.0415782 -0.0071502405        13950     13.20345     1.561883    11.641567    14.501401   0.56776152   -3.2544944 -0.072287567  -0.10081378 
   18500         0.01    1.0272811  0.048414895        13950    13.192012     1.540444    11.651568    14.495281   0.57175963   -3.2403587 -0.073499592  -0.10161398 
   18600         0.01    1.0370386 -0.058135951        13950    13.203177    1.5550757    11.648102    14.477796    0.5761479   -3.2270339 -0.076626694  -0.10218144 
   18700         0.01    1.0295677 -0.0082636781        13950    13.204755    1.5438729    11.660882    14.510788   0.61119859   -3.2835485 -0.075244696  -0.10231162 
   18800         0.01    1.0379414  0.042557193        13950    13.207424    1.5564295    11.650994    14.500479   0.59896206    -3.266808 -0.076911595  -0.10472646 
   18900         0.01      1.03588 -0.062576797        13950    13.201711    1.5533383    11.648373     14.49212    0.5966737   -3.2592211 -0.077543031  -0.10365651 
   19000         0.01    1.0625891 -0.022037638        13950    13.202333    1.5933896    11.608944    14.488512   0.57527967   -3.2791134 -0.071792768  -0.10394175 
   19100         0.01    1.0219023 -0.054086474        13950    13.201483    1.5323783    11.669105     14.49752   0.57785217   -3.2262526 -0.075172899    -0.104842 
   19200         0.01    1.0250734 -0.068507815        13950    13.203632    1.5371335    11.666499     14.48394   0.58541997   -3.2284522 -0.072813709  -0.10159528 
   19300         0.01    1.0300516  -0.10854899        13950    13.201883    1.5445985    11.657285    14.496201   0.57472865   -3.2306017 -0.079106013  -0.10393677 
   19400         0.01    1.0471219 -0.039353564        13950    13.212773     1.570196    11.642577    14.499952   0.56298445   -3.2344181 -0.080258951  -0.10568253 
   19500         0.01    1.0654875 -0.048148603        13950    13.222836    1.5977359      11.6251    14.496013   0.55736482   -3.2468851 -0.077052813  -0.10433993 
   19600         0.01    1.0389479 -0.089141851        13950    13.218866    1.5579387    11.660928    14.492038    0.5663589   -3.2226679 -0.074582963   -0.1002181 
   19700         0.01    1.0330152 -0.035900045        13950    13.225246    1.5490425    11.676204     14.48519   0.57224007   -3.2055717 -0.074379035  -0.10127567 
   19800         0.01    1.0200782 -0.014246641        13950    13.224999     1.529643    11.695356    14.499867   0.59198025    -3.226741 -0.069161724  -0.10058877 
   19900         0.01    1.0412415  0.053037024        13950    13.225174    1.5613781    11.663796    14.489954   0.59635453   -3.2472289 -0.072222615  -0.10306079 
   20000         0.01    1.0174956 0.0009414405        13950    13.232834    1.5257703    11.707064    14.516605    0.6166215   -3.2484596 -0.074999973   -0.1027036 
   20100         0.01    1.0670267 -0.067320775        13950    13.237302    1.6000439    11.637258    14.500296   0.57734394   -3.2583939 -0.077454618  -0.10453356 
   20200         0.01    1.0534249 -0.093587734        13950    13.237466    1.5796475    11.657818    14.489795   0.58964658   -3.2375402 -0.080472176  -0.10361133 
   20300         0.01    1.0611852 -0.001399279        13950    13.233543    1.5912844    11.642258    14.492832   0.57518451   -3.2465842 -0.076447927  -0.10272613 
   20400         0.01    1.0463262 -0.073118878        13950    13.233576    1.5690028    11.664574    14.505023   0.57527262   -3.2347009 -0.079148286  -0.10187315 
   20500         0.01    1.0321294 -0.041081441        13950    13.237185    1.5477143    11.689471    14.492386   0.59802113   -3.2204716 -0.078812046  -0.10165306 
   20600         0.01    1.0376226 -0.083829839        13950    13.246147    1.5559514    11.690195    14.484433   0.59587159   -3.2135551  -0.07531243  -0.10124163 
   20700         0.01    1.0325137 -0.043303971        13950     13.24378    1.5482904     11.69549    14.502634   0.60894158   -3.2338802  -0.07938216  -0.10282316 
   20800         0.01    1.0617259  0.032146067        13950    13.250096    1.5920951       11.658     14.49631   0.61408801   -3.2705479 -0.077056317  -0.10479353 
   20900         0.01    1.0424692 -0.044502483        13950     13.25326     1.563219    11.690041    14.502328   0.59451231   -3.2267158 -0.076715301  -0.10336784 
   21000         0.01    1.0492437 -0.012652732        13950    13.256066    1.5733777    11.682688    14.508628   0.58526633    -3.239221 -0.070903535  -0.10108159 
   21100         0.01    1.0677619 -0.040140386        13950    13.252549    1.6011463    11.651403    14.500949   0.56963733   -3.2409569 -0.074864273  -0.10336281 
   21200         0.01     1.064559 -0.082244828        13950    13.254792    1.5963435    11.658448    14.514141   0.58622065   -3.2637805  -0.07565349  -0.10247901 
   21300         0.01    1.0685803 -0.021557852        13950    13.250815    1.6023736    11.648442    14.510628   0.57691819   -3.2576315 -0.077130018  -0.10434321 
   21400         0.01    1.0368105 -0.089522865        13950    13.261575    1.5547337    11.706842    14.520658   0.57953183   -3.2225379 -0.072145412 -0.098664885 
   21500         0.01    1.0489789 -0.0093408238        13950    13.269601    1.5729806     11.69662    14.508717   0.59002799   -3.2411034 -0.065578998  -0.09544235 
   21600         0.01    1.0585263 -0.011224592        13950     13.26592    1.5872973    11.678623    14.509298   0.59077536   -3.2565901 -0.069190796 -0.095670437 
   21700         0.01    1.0604119 -0.065928915        13950    13.263715    1.5901248     11.67359    14.493133   0.56777917   -3.2145084 -0.073947392 -0.098865731 
   21800         0.01     1.059835 -0.026097744        13950    13.269206    1.5892598    11.679946    14.507758   0.58455432   -3.2369255 -0.073749654  -0.10169145 
   21900         0.01    1.0555242 -0.024468698        13950    13.277865    1.5827955     11.69507    14.512878   0.58879115   -3.2365605 -0.069969329  -0.10006882 
   22000         0.01    1.0661861 -0.0097475586        13950    13.273281    1.5987834    11.674498    14.498463   0.57030367   -3.2249994 -0.069528501 -0.099740243 
   22100         0.01    1.0359243 -0.073070898        13950    13.268897    1.5534048    11.715492    14.504742   0.58047145   -3.1922751 -0.077114415  -0.10033116 
   22200         0.01    1.0162173 -0.016111819        13950    13.271434    1.5238534     11.74758    14.495735   0.57080372   -3.1520822 -0.068097863 -0.098777738 
   22300         0.01    1.0355973 -0.0027696384        13950    13.268497    1.5529145    11.715583    14.495798   0.59330928   -3.1995885 -0.072538537  -0.10139769 
   22400         0.01    1.0353555 -0.038467094        13950    13.267597    1.5525519    11.715046    14.501797    0.5901786   -3.2003749 -0.075298651  -0.10125697 
   22500         0.01    1.0461249 -0.027226604        13950    13.267008    1.5687009    11.698307    14.497731   0.59140348   -3.2080923 -0.079172092  -0.10356319 
   22600         0.01    1.0315505 0.0039117008        13950    13.265762    1.5468462    11.718915    14.502064   0.60838428   -3.2069953 -0.080273845  -0.10426408 
   22700         0.01    1.0535162  0.048702302        13950    13.265258    1.5797845    11.685474    14.481593   0.60290421   -3.2149892 -0.080571283  -0.10346248 
   22800         0.01    1.0394215 -0.058082419        13950    13.266868     1.558649    11.708219    14.518947   0.59144826   -3.2216026  -0.07554631  -0.10502741 
   22900         0.01    1.0647521 -0.044682069        13950    13.274281    1.5966331    11.677648    14.499719   0.59697811   -3.2326328 -0.080302856  -0.10611373 
   23000         0.01    1.0591979  0.019644592        13950     13.27396    1.5883044    11.685656    14.502496   0.59650616   -3.2350647 -0.075760755  -0.10252112 
   23100         0.01    1.0611397  0.038134827        13950    13.284523    1.5912162    11.693307    14.512347   0.61039969   -3.2470039  -0.07766149   -0.1047737 
   23200         0.01    1.0820034 -0.043478691        13950    13.289138     1.622502    11.666636    14.494854   0.60011271   -3.2461216 -0.076339693  -0.10586881 
   23300         0.01    1.0674333 -0.054556295        13950    13.298903    1.6006536     11.69825    14.516094   0.58069996   -3.2175337 -0.077355323  -0.10365544 
   23400         0.01    1.0760009 -0.083561539        13950    13.303874    1.6135011    11.690373    14.495734   0.59940521   -3.2230739 -0.076119655  -0.10557226 
   23500         0.01    1.0755171 -0.031751423        13950    13.308324    1.6127755    11.695549    14.518637   0.59417678   -3.2385164 -0.074465641  -0.10428363 
   23600         0.01    1.0661005  -0.10490303        13950    13.307603     1.598655    11.708948    14.514034   0.60507418   -3.2283695 -0.076469998  -0.10532076 
   23700         0.01    1.0663196 -0.052188321        13950    13.300849    1.5989836    11.701866    14.519945   0.55907835   -3.1996417 -0.075006613  -0.10250867 
   23800         0.01    1.0783076 -0.048718546        13950    13.306401      1.61696    11.689441    14.511235   0.57674315   -3.2184952 -0.077486926  -0.10255499 
   23900         0.01    1.0649381  -0.06398734        13950    13.309109    1.5969119    11.712197    14.503281   0.58852294   -3.2016237  -0.07628081  -0.10170255 
   24000         0.01    1.0823241 -0.038482111        13950    13.317328    1.6229829    11.694345     14.49856    0.6117112   -3.2325338 -0.078940707  -0.10445244 
   24100         0.01      1.08881  0.057128907        13950    13.328361    1.6327088    11.695653    14.505494     0.594569   -3.2298639 -0.072526281  -0.10201999 
   24200         0.01    1.0439824 -0.029454559        13950    13.326781    1.5654881    11.761293    14.494173   0.61986195   -3.1755985 -0.074467234  -0.10267626 
   24300         0.01     1.054091 -0.026155474        13950    13.334665    1.5806463    11.754019    14.496858   0.64144498   -3.1960759 -0.085242283  -0.10296579 
   24400         0.01    1.0786082 -0.012553256        13950    13.341909    1.6174108    11.724498    14.510788   0.58815745   -3.1971039 -0.075702582  -0.10164032 
   24500         0.01     1.093661 -0.021575407        13950    13.338849    1.6399831    11.698866    14.488499   0.59026351   -3.2058568 -0.072625763  -0.10141317 
   24600         0.01    1.0628125 -0.022842363        13950    13.338726    1.5937246    11.745001    14.536983   0.59291073   -3.2028757 -0.079221607  -0.10279559 
   24700         0.01    1.0776706 -0.054810971        13950    13.339225    1.6160049    11.723221    14.523466   0.60142188   -3.2178344 -0.080317467  -0.10351522 
   24800         0.01    1.0927432  -0.07030147        13950    13.331309    1.6386066    11.692702    14.489258   0.59163279   -3.2053741  -0.07714505  -0.10567002 
   24900         0.01    1.0625518 -0.080266674        13950    13.333685    1.5933336    11.740352    14.529303   0.60667629   -3.2087394 -0.081367965  -0.10551989 
   25000         0.01    1.0665606  0.031987115        13950     13.33044     1.599345    11.731095    14.497013   0.59204718   -3.1762649 -0.078221507   -0.1034786 
   25100         0.01    1.0691446 -0.0072235912        13950       13.331    1.6032198     11.72778    14.486276   0.59823184   -3.1726316 -0.079619404  -0.10447673 
   25200         0.01     1.056075 -0.055935235        13950    13.332057    1.5836214    11.748436    14.499488   0.59494951   -3.1627872  -0.07859779  -0.10461651 
   25300         0.01    1.0601095 -0.0093215447        13950    13.321918    1.5896713    11.732247    14.495886   0.59520812   -3.1743534  -0.08039814  -0.10409538 
   25400         0.01    1.0635542  -0.11577763        13950    13.319843    1.5948368    11.725006    14.496901   0.60161405   -3.1904993 -0.079050085   -0.1039589 
   25500         0.01    1.0411811 -0.097185715        13950    13.321198    1.5612875     11.75991    14.533808   0.59272693   -3.1814483 -0.083045052  -0.10213153 
   25600         0.01    1.0512559 -0.052728876        13950     13.31393     1.576395    11.737535    14.513896    0.6230389   -3.2189482 -0.079192188  -0.10125925 
   25700         0.01    1.0870894 -0.049424354        13950     13.32324    1.6301287    11.693111    14.510057   0.59006718   -3.2276823 -0.077523273  -0.10180727 
   25800         0.01    1.0665177  0.028628958        13950    13.321389    1.5992806    11.722108    14.499942   0.61638635   -3.2114539 -0.078591489   -0.1041748 
   25900         0.01    1.0853701 -0.038704374        13950    13.319222    1.6275504    11.691672    14.480785   0.60953032   -3.2127433  -0.08113356  -0.10476629 
   26000         0.01    1.0721849    0.0336089        13950    13.328305    1.6077789    11.720527    14.493766   0.59832869   -3.1939544 -0.077948847 -0.099665097 
   26100         0.01     1.061882 -0.052245335        13950    13.323192    1.5923293    11.730863    14.495098   0.58088388   -3.1738383 -0.073466028 -0.097814707 
   26200         0.01    1.0603223 -0.043663333        13950    13.329942    1.5899904    11.739951    14.512133   0.58731207   -3.1791995 -0.081623196 -0.098671212 
   26300         0.01    1.0652721 -0.041338461        13950    13.330475    1.5974128    11.733063    14.524815   0.58006931    -3.194366 -0.076778239   -0.1006779 
   26400         0.01    1.0760336  0.016187668        13950      13.3379    1.6135501     11.72435    14.503468   0.59762696   -3.1977212  -0.07690092  -0.10212303 
   26500         0.01    1.0919239  -0.10519666        13950    13.338206    1.6373782    11.700827    14.500244   0.59096042    -3.210083 -0.076302726  -0.10399088 
   26600         0.01    1.0807425  -0.02542066        13950    13.337863    1.6206112    11.717252    14.512064   0.58324691   -3.1981902  -0.07522383  -0.10464481 
   26700         0.01    1.0571587 -0.011385214        13950    13.339071    1.5852465    11.753825    14.516622    0.6115158   -3.1900198  -0.07873473   -0.1055583 
   26800         0.01    1.0688974 -0.039423106        13950    13.346099    1.6028491     11.74325    14.491246   0.63780981   -3.2019774  -0.07836261  -0.10546628 
   26900         0.01    1.0540872  0.010461016        13950    13.342962    1.5806407    11.762321    14.517601   0.61763839   -3.1952622 -0.075037177  -0.10261859 
   27000         0.01    1.0764007 -0.063578657        13950    13.343978    1.6141006    11.729877    14.514793   0.58477246   -3.1962133 -0.071075727  -0.10239903 
   27100         0.01    1.0901349 -0.034722066        13950    13.349664    1.6346955    11.714968    14.490161   0.59699634    -3.195484 -0.073794328  -0.10291038 
   27200         0.01    1.0670584 -0.0074030577        13950    13.348475    1.6000914    11.748383    14.510648   0.58882999   -3.1737491 -0.074460409  -0.10288538 
   27300         0.01    1.1063205   -0.1187005        13950    13.354857    1.6589663    11.695891    14.522249   0.55962876   -3.2061278 -0.076410216  -0.10344865 
   27400         0.01    1.0685865 -0.0069135407        13950    13.361152    1.6023829    11.758769    14.511697   0.60868393   -3.1849456 -0.075219717  -0.10144612 
   27500         0.01    1.0707773 1.5936043e-05        13950    13.366903     1.605668    11.761235    14.513149   0.60938826   -3.1786434 -0.080851565  -0.10180688 
   27600         0.01    1.0777398 -0.053328197        13950    13.366098    1.6161086    11.749989    14.522648   0.61762015    -3.209604 -0.078551152  -0.10212394 
   27700         0.01    1.0781287 -0.039505154        13950    13.368339    1.6166918    11.751647    14.516215   0.61052647   -3.1943904 -0.079860002  -0.10084369 
   27800         0.01    1.0702259 -0.044691854        13950    13.362467    1.6048413    11.757626    14.499092   0.61704083   -3.1857437 -0.072606688  -0.10015673 
   27900         0.01    1.0915677 -0.059796066        13950    13.359661     1.636844    11.722817    14.517285   0.59281068   -3.2073863 -0.077131155  -0.10276077 
   28000         0.01    1.0822454 -0.040280092        13950    13.368361    1.6228649    11.745496    14.514663   0.59680958   -3.1802194 -0.080591544  -0.10516556 
   28100         0.01    1.0649465  -0.13124134        13950    13.373437    1.5969246    11.776512    14.538131   0.60851034   -3.1892451 -0.076028328  -0.10485509 
   28200         0.01    1.0779396 -0.0057830114        13950    13.380794    1.6164082    11.764386    14.518018   0.61892857   -3.1942204 -0.074466913  -0.10387325 
   28300         0.01    1.0747255 -0.041483916        13950    13.376452    1.6115886    11.764864    14.522984     0.607024    -3.186984 -0.074893798  -0.10326684 
   28400         0.01    1.0959433  0.064957291        13950    13.381342    1.6434053    11.737937    14.510122   0.61500749     -3.20939 -0.075561819  -0.10224074 
   28500         0.01    1.1148001 -0.026038801        13950    13.379661    1.6716817    11.707979    14.509142   0.61444028   -3.2439873 -0.068872062  -0.10274397 
   28600         0.01     1.091406 -0.032278597        13950    13.378477    1.6366015    11.741875    14.515883   0.62222605   -3.2170603 -0.075973363  -0.10320025 
   28700         0.01    1.1101101 0.0023555442        13950    13.375704     1.664649    11.711055    14.512461   0.60014842   -3.2169892 -0.079446276  -0.10511839 
   28800         0.01    1.0975596 -0.050524582        13950    13.379324    1.6458291    11.733495    14.497223   0.61399486   -3.1962151 -0.076551394  -0.10495656 
   28900         0.01    1.0913015  0.054532301        13950    13.395518    1.6364448    11.759073    14.512127   0.59247695   -3.1628238 -0.077497932  -0.10520944 
   29000         0.01     1.076733 -0.059891709        13950    13.398595    1.6145989    11.783996    14.522877   0.60846188   -3.1691666 -0.073911361  -0.10426468 
   29100         0.01    1.0640784 -0.0057022695        13950    13.393119    1.5956229    11.797496    14.529053   0.61352462   -3.1683289 -0.073191578  -0.10356166 
   29200         0.01    1.0753664 -0.018400716        13950    13.399872    1.6125495    11.787322     14.50682   0.60128151   -3.1413903 -0.074697663  -0.10469085 
   29300         0.01    1.0706017 -0.080204991        13950    13.402153    1.6054047    11.796748    14.509998   0.60713114   -3.1425751 -0.076039416   -0.1017664 
   29400         0.01    1.0844506 -0.067924357        13950    13.395986    1.6261717    11.769814    14.512253    0.6182155   -3.1813549 -0.074585375  -0.10471343 
   29500         0.01    1.0883623  0.017558849        13950    13.404354    1.6320375    11.772316    14.526168   0.64489374   -3.2263729 -0.069233768  -0.10313921 
   29600         0.01    1.0790153 -0.010044889        13950    13.407356    1.6180212    11.789335    14.510492   0.62276326   -3.1730581 -0.068112179  -0.10275056 
   29700         0.01    1.0731383 -0.059344781        13950    13.408659    1.6092085     11.79945    14.515538   0.62310141   -3.1600353 -0.074134933  -0.10501857 
   29800         0.01     1.084139 -0.057362825        13950    13.406112    1.6257044    11.780407     14.52167   0.60980861    -3.175395 -0.073065632  -0.10261077 
   29900         0.01    1.0703974 0.0093966333        13950    13.404945    1.6050984    11.799846    14.515966   0.60734552   -3.1539286 -0.068972499  -0.10056401 
   30000         0.01    1.0558955 -0.024832063        13950    13.397425    1.5833523    11.814072     14.51603   0.63229639   -3.1626368 -0.071210187  -0.10040669 
   30100         0.01    1.0823051 -0.098899699        13950    13.402115    1.6229544    11.779161    14.515799   0.60058657   -3.1619117 -0.073208885  -0.10210396 
   30200         0.01    1.1096499 -0.028930046        13950    13.407033     1.663959    11.743074    14.520926   0.58544133   -3.1883707  -0.07330071  -0.10162191 
   30300         0.01    1.0869064 -0.061545253        13950    13.413262    1.6298542    11.783407    14.517576   0.60335008   -3.1609966 -0.072871603  -0.10365016 
   30400         0.01    1.0787724  0.021368826        13950    13.413715     1.617657    11.796058    14.526185   0.60582395   -3.1683459 -0.066820293  -0.10078542 
   30500         0.01    1.0910636 -0.041298359        13950    13.419281    1.6360881    11.783192    14.513154   0.63054041    -3.187951  -0.07158466  -0.10096622 
   30600         0.01    1.0858848 -0.031393943        13950    13.417989    1.6283223    11.789667    14.499207   0.63153186   -3.1675596  -0.07275778  -0.10075419 
   30700         0.01    1.0777117 -0.048012743        13950    13.413164    1.6160665    11.797098    14.514057    0.6171857   -3.1619112 -0.071268568  -0.10096494 
   30800         0.01    1.1036986 -0.014051199        13950    13.410261    1.6550348    11.755226    14.512913   0.60831323   -3.1940288 -0.070396454  -0.10157496 
   30900         0.01    1.0858107 -0.027971794        13950    13.407719    1.6282112    11.779508    14.505966   0.62284966   -3.1792799  -0.06936004  -0.10066782 
   31000         0.01    1.0764052  -0.05746346        13950    13.414786    1.6141073    11.800678     14.50876   0.60976674   -3.1445002 -0.071977743  -0.10137019 
   31100         0.01    1.0826656 -0.033320054        13950     13.41767     1.623495    11.794175    14.485746   0.63886754   -3.1527015 -0.075418746  -0.10231855 
   31200         0.01     1.099284  0.025503796        13950    13.413691    1.6484148    11.765276    14.522512   0.63553469   -3.2108263 -0.079122433   -0.1028214 
   31300         0.01    1.0993288 -0.043254644        13950    13.421935    1.6484821    11.773453    14.522838   0.63433454    -3.205146 -0.075410847  -0.10316294 
   31400         0.01    1.0783309  0.050109683        13950    13.424082     1.616995    11.807087    14.514393    0.6317035    -3.161742 -0.075558713  -0.10170898 
   31500         0.01     1.117678 -0.082343712        13950    13.425826    1.6759973    11.749829    14.505826    0.6035401   -3.1773973 -0.078056753  -0.10408329 
   31600         0.01    1.0828661  -0.02163561        13950    13.430691    1.6237957    11.806896    14.518976   0.61787374   -3.1458966  -0.07842536  -0.10563223 
   31700         0.01     1.096999 -0.038643355        13950    13.430094    1.6449884    11.785106    14.516134   0.64240439    -3.190016 -0.077663728  -0.10575273 
   31800         0.01    1.0917761  -0.03130901        13950    13.430685    1.6371565    11.793529    14.516192   0.62294983   -3.1627995 -0.076875159  -0.10593847 
   31900         0.01    1.0947529 -0.021842215        13950    13.438718    1.6416203    11.797098     14.52463   0.63531916   -3.1887711 -0.070994383  -0.10308582 
   32000         0.01    1.0751907 -0.079883972        13950    13.434533    1.6122861    11.822247    14.516791   0.63470131   -3.1504532 -0.076514626  -0.10227794 
   32100         0.01    1.0891773 -0.037202936        13950    13.433258    1.6332596    11.799999    14.522693   0.62769792   -3.1715579 -0.074830198  -0.10400472 
   32200         0.01    1.0923987  -0.11649409        13950    13.424848    1.6380902    11.786758    14.512383   0.63789462   -3.1832772 -0.074997707  -0.10524505 
   32300         0.01    1.0822482  -0.10517347        13950    13.422506    1.6228691    11.799637    14.523462   0.63387796   -3.1747838   -0.0781884  -0.10473027 
   32400         0.01    1.0764596 -0.087885838        13950    13.426029    1.6141889     11.81184    14.508019   0.64144501   -3.1613521 -0.072037331  -0.10423453 
   32500         0.01    1.0965761 -0.093293869        13950    13.419056    1.6443542    11.774702    14.509485   0.60280411   -3.1572485 -0.076639316  -0.10369911 
   32600         0.01    1.1001989 -0.051658572        13950    13.428443    1.6497867    11.778657    14.503012   0.62718509    -3.171043 -0.076787269  -0.10370994 
   32700         0.01    1.0983093 -0.061834649        13950     13.43696    1.6469533    11.790007    14.490771   0.64439965   -3.1711465 -0.071052846  -0.10296396 
   32800         0.01    1.1184915 -0.032205071        13950     13.43583    1.6772172    11.758612    14.504398   0.61690046   -3.1901087 -0.071819712  -0.10075739 
   32900         0.01    1.1035087  0.010952715        13950    13.434452      1.65475    11.779702    14.524412   0.58514562   -3.1576741 -0.071052458  -0.10112983 
   33000         0.01    1.0812762  0.021260624        13950    13.443966    1.6214115    11.822554    14.540203   0.61203588   -3.1575738  -0.07040539  -0.10170567 
   33100         0.01    1.0829096 -0.091535131        13950    13.440956    1.6238609    11.817095     14.53731   0.60646731   -3.1491327 -0.074447261  -0.10310237 
   33200         0.01    1.1007451  -0.04813641        13950    13.450755    1.6506059     11.80015    14.533068   0.61908262   -3.1795149 -0.072374453  -0.10011158 
   33300         0.01    1.0990881 -0.049869233        13950    13.458055    1.6481211    11.809934    14.527532   0.60861281   -3.1583346 -0.067944199 -0.099932107 
   33400         0.01    1.1140554 -0.059786322        13950     13.45237    1.6705651    11.781805    14.522549   0.62109541   -3.1851264 -0.074192143  -0.10252025 
   33500         0.01    1.1000449 -0.047565104        13950    13.445126    1.6495558     11.79557    14.528087   0.60171439   -3.1612958 -0.070772398  -0.10216382 
   33600         0.01    1.0907992 -0.037775868        13950    13.444475    1.6356916    11.808784    14.516638   0.62508306   -3.1554052 -0.075505303  -0.10202638 
   33700         0.01    1.1142339 -0.073924212        13950    13.439695    1.6708328    11.768862     14.52321   0.62642157   -3.2118686  -0.06968016 -0.099220999 
   33800         0.01    1.1242436  0.079829911        13950     13.43867    1.6858426    11.752827    14.522256   0.60049956    -3.197608  -0.07251747 -0.099802929 
   33900         0.01    1.1026526 -0.031095797        13950    13.433464    1.6534663    11.779998    14.525864   0.64581167   -3.2117123 -0.078478378  -0.10148659 
   34000         0.01    1.1221283 -0.049144542        13950    13.435046    1.6826708    11.752375    14.513923   0.62316632   -3.2040865  -0.07855027  -0.10207757 
   34100         0.01    1.1028659 -0.071135821        13950     13.43921    1.6537861    11.785424    14.544569   0.60759896   -3.1790637 -0.082938362  -0.10474148 
   34200         0.01     1.110143 -0.070899182        13950    13.441899    1.6646983    11.777201    14.518455   0.63159841    -3.194196 -0.075988086   -0.1026685 
   34300         0.01    1.0947892 -0.024899824        13950    13.443162    1.6416748    11.801487     14.53027   0.63352847   -3.1889934  -0.07242298  -0.10089487 
   34400         0.01    1.1106499 -0.023095548        13950    13.441533    1.6654584    11.776075    14.531291   0.63609208   -3.2139476  -0.07548445  -0.10187616 
   34500         0.01    1.1062191  -0.03419478        13950    13.437501    1.6588143    11.778687    14.534032   0.61873189   -3.1942296 -0.078580462   -0.1012667 
   34600         0.01    1.0948266 -0.029147725        13950    13.447397    1.6417309    11.805666    14.532916   0.63287484   -3.1834707 -0.074622856  -0.10203163 
   34700         0.01    1.0840454  0.046096265        13950    13.448521    1.6255641    11.822957    14.532404   0.65605566   -3.1848062 -0.076237885  -0.10445884 
   34800         0.01    1.1152004 -0.034870518        13950    13.437454    1.6722821    11.765172     14.51229   0.63897062   -3.2047418 -0.077047131  -0.10429977 
   34900         0.01    1.0952156 -0.064068473        13950    13.442653    1.6423141    11.800339    14.528869   0.62484477   -3.1767624 -0.073144463  -0.10346822 
   35000         0.01    1.1145307 -0.007051856        13950    13.444355    1.6712778    11.773077    14.525688   0.63343327    -3.211835 -0.071145414  -0.10306363 
   35100         0.01    1.1052262 -0.028388766        13950    13.439591    1.6573254    11.782265     14.53434   0.61730385    -3.187328  -0.07588621  -0.10616455 
   35200         0.01    1.1120685 -0.054843941        13950    13.437215    1.6675857    11.769629    14.529784   0.60981488   -3.1907602 -0.073380368  -0.10582922 
   35300         0.01    1.1033751 -0.069316063        13950    13.443216    1.6545496    11.788667    14.521936   0.63086216   -3.1887504 -0.070963726  -0.10441701 
   35400         0.01    1.1013613 -0.050346548        13950    13.438331    1.6515298    11.786801    14.536749   0.62699748   -3.2022726 -0.071799766  -0.10287371 
   35500         0.01    1.1063987  -0.05051286        13950    13.439181    1.6590836    11.780097    14.535412   0.62923996   -3.2080325 -0.071020451  -0.10550183 
   35600         0.01    1.1051385 -0.064993455        13950    13.447715     1.657194    11.790521    14.527121   0.64100913   -3.1953625 -0.076766436  -0.10548002 
   35700         0.01      1.13502 -0.085748024        13950    13.448233    1.7020023    11.746231    14.530914    0.6418625   -3.2411134 -0.078717837  -0.10671476 
   35800         0.01    1.1240078  0.020356574        13950    13.462424    1.6854891    11.776935    14.552771   0.62691695   -3.2181924 -0.078071896  -0.10648828 
   35900         0.01    1.1195569 -0.069232416        13950    13.462253    1.6788147    11.783438    14.551384   0.62083023   -3.2065832 -0.076388482  -0.10580445 
   36000         0.01    1.1152597 -0.027287819        13950    13.462997     1.672371    11.790626    14.551946   0.61496453   -3.1979392 -0.072400621  -0.10594433 
   36100         0.01    1.1299239 -0.045353632        13950    13.464373    1.6943605    11.770013    14.539776   0.61532657   -3.2019003 -0.076773302  -0.10641574 
   36200         0.01    1.1377403 -0.031047148        13950    13.458175    1.7060815    11.752094    14.554739   0.64727443   -3.2628362 -0.080573869  -0.10650973 
   36300         0.01     1.134719 -0.014167705        13950    13.469719    1.7015509    11.768168    14.522658   0.62542295   -3.1988747 -0.075800417  -0.10523731 
   36400         0.01    1.1031448  0.034668639        13950    13.463273    1.6542042    11.809069    14.558014   0.62952064   -3.1950523 -0.078082635  -0.10533053 
   36500         0.01    1.1260196  -0.04791635        13950    13.453112    1.6885058    11.764606    14.513552   0.64198384    -3.205905 -0.078918693  -0.10610526 
   36600         0.01    1.1349198  -0.06626079        13950    13.446158     1.701852    11.744306    14.517983   0.63404942   -3.2260582 -0.074646463  -0.10702113 
   36700         0.01    1.1282554 -0.072870433        13950    13.445964    1.6918585    11.754106    14.526205   0.64696646   -3.2364064 -0.075805152  -0.10685363 
   36800         0.01    1.1200669 -0.092655751        13950    13.440833    1.6795796    11.761253    14.523585   0.63447206   -3.2116874 -0.078658363  -0.10645789 
   36900         0.01    1.1105348 -0.044581974        13950    13.437167    1.6652858    11.771881    14.520981   0.64619986   -3.2115305 -0.078206958  -0.10556302 
   37000         0.01    1.1016142  -0.06269337        13950    13.442511    1.6519091    11.790602    14.524594   0.63134967   -3.1789521 -0.080043783  -0.10634526 
   37100         0.01    1.1014548 -0.063436021        13950    13.436649    1.6516701    11.784979    14.536528    0.6208549   -3.1890906 -0.076568701  -0.10674492 
   37200         0.01    1.1105478  -0.10089803        13950    13.440884    1.6653053    11.775578    14.533589   0.62274803   -3.2003265 -0.074896507   -0.1055351 
   37300         0.01    1.1069669 -0.081094144        13950    13.445373    1.6599357    11.785437    14.526757   0.63934723   -3.1961647 -0.079525638  -0.10497693 
   37400         0.01    1.1027679 -0.076555134        13950    13.438902     1.653639    11.785263    14.527472   0.62921568    -3.188193 -0.078473801  -0.10475746 
   37500         0.01     1.101119 -0.084837548        13950    13.436479    1.6511665    11.785313    14.538139   0.64415828   -3.2181843 -0.074391459  -0.10440897 
   37600         0.01    1.1407279 -0.058582326        13950    13.444328    1.7105615    11.733766    14.520305   0.62687043   -3.2292901 -0.080454701  -0.10366418 
   37700         0.01    1.1179215 -0.043951545        13950    13.431689    1.6763625    11.755327    14.515304   0.63045401   -3.2055954  -0.07910605  -0.10572947 
   37800         0.01    1.1173773 -0.088787051        13950    13.427815    1.6755463    11.752269    14.537901   0.67037696   -3.2680153 -0.080312842  -0.10768038 
   37900         0.01    1.1190891 -0.052528834        13950    13.411497    1.6781132    11.733384    14.523479   0.65278614   -3.2559176 -0.079383157  -0.10758049 
   38000         0.01    1.1035195 -0.043778492        13950    13.414987    1.6547661    11.760221     14.54872   0.63313052   -3.2418659  -0.07244971  -0.10731433 
   38100         0.01    1.1142714  -0.10420281        13950    13.416024     1.670889    11.745135    14.534918   0.66067576   -3.2627225 -0.079491935  -0.10824466 
   38200         0.01    1.1009549  0.016268981        13950    13.410056    1.6509205    11.759135    14.546015   0.64025863    -3.238231 -0.082188996  -0.10671853 
   38300         0.01    1.1191986 -0.034135938        13950    13.412503    1.6782775    11.734226    14.527137    0.6403723    -3.247228 -0.078896152  -0.10715942 
   38400         0.01    1.1024475 -0.015118151        13950    13.398863    1.6531586    11.745704     14.54043   0.63283972   -3.2465583 -0.075088661  -0.10591862 
   38500         0.01    1.1044602 -0.090754762        13950    13.410224    1.6561768    11.754047    14.538983   0.64150662   -3.2402918 -0.080434444  -0.10571653 
   38600         0.01    1.1157723 -0.061268974        13950     13.40907    1.6731397     11.73593    14.544186   0.63446737    -3.254826 -0.081070107  -0.10682748 
   38700         0.01    1.0935945 -0.018453484        13950    13.404686    1.6398832    11.764803    14.542456   0.64959256   -3.2379965 -0.081666339  -0.10758297 
   38800         0.01    1.1304153 0.0087820331        13950    13.408241    1.6950974    11.713144    14.528352   0.63264234   -3.2613984 -0.078605644  -0.10784648 
   38900         0.01    1.1164367 -0.069304263        13950    13.412836    1.6741359      11.7387    14.538063   0.65358445   -3.2646529 -0.080812851  -0.10748227 
   39000         0.01    1.1326529 -0.0026488995        13950    13.419694    1.6984527    11.721241    14.521625   0.66392089   -3.2769251  -0.08007479  -0.10730502 
   39100         0.01    1.1276231 -0.094999704        13950    13.417393    1.6909103    11.726483    14.522204   0.66226688   -3.2737002 -0.077073571  -0.10721426 
   39200         0.01    1.1243206  0.013536344        13950     13.41239    1.6859582    11.726432    14.507609   0.64617772   -3.2441787 -0.076140387  -0.10703523 
   39300         0.01     1.098517  0.042333898        13950    13.413861    1.6472647    11.766596    14.512935   0.64806135   -3.2037749 -0.085280189  -0.10534505 
   39400         0.01    1.1031177  -0.14810174        13950    13.418632    1.6541636    11.764468    14.523036   0.63694012   -3.2055787 -0.085163618  -0.10476537 
   39500         0.01    1.1217203  -0.12691924        13950    13.405481    1.6820588    11.723422    14.528701   0.62788068   -3.2447596 -0.083867523  -0.10453222 
   39600         0.01    1.0996653 -0.019793246        13950    13.408742    1.6489867    11.759756    14.532085   0.61273097   -3.1953758 -0.085317961  -0.10436616 
   39700         0.01    1.1127669 -0.094715941        13950     13.40642     1.668633    11.737787    14.521287   0.64559984   -3.2465829 -0.078516427  -0.10400056 
   39800         0.01    1.0967071 -0.061120854        13950    13.410923    1.6445507    11.766372    14.525977   0.65401811    -3.229943 -0.080488321  -0.10319153 
   39900         0.01     1.109358 -0.038503468        13950    13.407799    1.6635212    11.744278     14.54457   0.63870645   -3.2572991 -0.077284527  -0.10441552 
   40000         0.01    1.1268364 -0.0064672996        13950    13.407167    1.6897307    11.717436    14.507465   0.64925025   -3.2540071 -0.080293843  -0.10497855 
   40100         0.01    1.1137194 6.7068094e-05        13950    13.404977    1.6700613    11.734916    14.519344   0.67193345   -3.2728489  -0.08021074  -0.10330239 
   40200         0.01    1.1402468 -0.032636803        13950    13.409374    1.7098401    11.699534    14.525292     0.648482   -3.2917854 -0.080578996  -0.10187547 
   40300         0.01    1.1395602 -0.044039538        13950    13.404116    1.7088104    11.695305    14.540126   0.62795272   -3.2875998 -0.081370626  -0.10380298 
   40400         0.01    1.1347651  0.016912945        13950    13.399514      1.70162    11.697894    14.531566   0.61499705   -3.2737347 -0.071909136  -0.10302494 
   40500         0.01    1.1228778 -0.071048783        13950    13.396443    1.6837946    11.712649     14.53245   0.62562255   -3.2681046 -0.073365174  -0.10395458 
   40600         0.01    1.1257605   -0.0244542        13950    13.386949    1.6881174    11.698832     14.52116   0.63622714   -3.2771931 -0.076694604  -0.10466757 
   40700         0.01     1.125455 0.0082672541        13950     13.39017    1.6876592    11.702511    14.547144   0.63883951   -3.3017291 -0.077880545  -0.10386276 
   40800         0.01    1.1322791  -0.10908534        13950    13.397946    1.6978921    11.700054    14.534925   0.65167133   -3.3035559  -0.08040598  -0.10258022 
   40900         0.01    1.1426309  -0.07187451        13950    13.398004    1.7134151    11.684589    14.531571   0.65198331   -3.3186653 -0.078245379  -0.10205439 
   41000         0.01    1.1567733  0.034327296        13950    13.409345     1.734622    11.674723    14.509436   0.62911214   -3.2878353  -0.07285163  -0.10313805 
   41100         0.01    1.1316918 -0.061379251        13950    13.410841    1.6970114     11.71383    14.544571   0.65727482   -3.3064678 -0.077810669  -0.10373786 
   41200         0.01       1.1394 -0.074102715        13950    13.411457    1.7085702    11.702887    14.525096   0.64416116   -3.2830148 -0.077450379    -0.105905 
   41300         0.01    1.1089598  0.036074575        13950    13.410027    1.6629241    11.747103    14.536942   0.68006281   -3.2903457 -0.074455589  -0.10509988 
   41400         0.01     1.130933 -0.044756204        13950     13.40568    1.6958736    11.709807     14.53413   0.64611562   -3.2887264 -0.076475154  -0.10523758 
   41500         0.01    1.1227747 -0.070824393        13950    13.395784    1.6836399    11.712144    14.540256   0.63357889   -3.2836111 -0.072055768  -0.10602413 
   41600         0.01    1.1321796 -0.086145247        13950    13.397688     1.697743    11.699945    14.555419   0.65455808   -3.3240122  -0.07975396  -0.10626597 
   41700         0.01    1.1284855  0.031439769        13950    13.396359    1.6922035    11.704155    14.538241   0.66359456   -3.3036311 -0.084153256  -0.10989629 
   41800         0.01    1.1322672 -0.057089517        13950    13.395006    1.6978743    11.697131    14.538619   0.63943223   -3.2969909 -0.074508893  -0.10942053 
   41900         0.01    1.1310735  -0.02980097        13950    13.399071    1.6960843    11.702986    14.530649   0.65851286   -3.3018997 -0.076981496  -0.10729484 
   42000         0.01    1.1153701 -0.015961558        13950    13.385786    1.6725365     11.71325    14.531442   0.65570451    -3.289125 -0.078249531  -0.10652223 
   42100         0.01    1.1423169 -0.038512901        13950    13.383887    1.7129443    11.670943    14.496939   0.64503641   -3.2824533  -0.08121297  -0.10736666 
   42200         0.01    1.1363085 -0.049468143        13950    13.392975    1.7039343    11.689041    14.530753   0.64884542   -3.3036141 -0.082381767  -0.10456145 
   42300         0.01    1.1214799 -0.024097998        13950    13.386846    1.6816983    11.705148    14.541294   0.63200985   -3.2845387 -0.078179215  -0.10543821 
   42400         0.01    1.1045803 -0.040199747        13950    13.383186    1.6563569    11.726829    14.560308   0.64972896   -3.3016805 -0.076833798  -0.10469314 
   42500         0.01    1.1174158 -0.026367157        13950    13.381696    1.6756041    11.706092    14.515559   0.64112126   -3.2729209 -0.074758909  -0.10290852 
   42600         0.01    1.1374405 -0.044149117        13950      13.3811    1.7056318    11.675468    14.531068   0.62536915   -3.2978357 -0.079055445  -0.10407757 
   42700         0.01    1.1111533 -0.077964168        13950    13.373663    1.6662133     11.70745     14.51477   0.65239772   -3.2739878 -0.080082196  -0.10564825 
   42800         0.01    1.1181483  -0.05645215        13950    13.378475    1.6767025    11.701772     14.50522   0.65556156   -3.2763851 -0.078053804  -0.10457062 
   42900         0.01    1.1215423 -0.050089256        13950    13.377605    1.6817919    11.695813    14.517626   0.63092894   -3.2685074 -0.079407052  -0.10482735 
   43000         0.01    1.1422901  -0.09294898        13950    13.388926     1.712904    11.676022    14.532301    0.6419037   -3.3082172  -0.08311417  -0.10685081 
   43100         0.01    1.1321094 -0.074556815        13950    13.391431    1.6976377    11.693793    14.517165   0.63396085   -3.2774387 -0.074742949   -0.1051509 
   43200         0.01    1.1188476 -0.017381937        13950    13.398711    1.6777512    11.720959    14.523065   0.64596855   -3.2671152  -0.07523995  -0.10571862 
   43300         0.01    1.1529306  0.019452625        13950     13.40006    1.7288598      11.6712    14.515254    0.6349825   -3.2951992 -0.078165576  -0.10567182 
   43400         0.01    1.0989875 -0.023971025        13950     13.39987    1.6479703      11.7519    14.535389   0.64824725   -3.2537394 -0.072923216  -0.10507377 
   43500         0.01    1.1311612 -0.036821921        13950    13.403661    1.6962159    11.707445    14.530405    0.6538205      -3.2922 -0.076901728  -0.10767822 
   43600         0.01    1.1461698 -0.048642197        13950    13.403028    1.7187217    11.684306    14.517262   0.64766517   -3.2999631 -0.074250829  -0.10640681 
   43700         0.01    1.1398106 -0.037216401        13950    13.402225    1.7091859    11.693039    14.510513   0.62586961   -3.2583905 -0.078326681  -0.10662645 
   43800         0.01    1.1310574  -0.16330189        13950      13.4061    1.6960601     11.71004    14.535947   0.66126947   -3.2986305 -0.081286576  -0.10725966 
   43900         0.01    1.1275811 -0.014001401        13950    13.407752    1.6908473    11.716905    14.537047   0.68563959   -3.3159007 -0.082532103  -0.10734896 
   44000         0.01    1.1462124 -0.048668386        13950    13.404925    1.7187857     11.68614    14.545318   0.64734676   -3.3193236 -0.081465143  -0.10573665 
   44100         0.01    1.1375948 -0.075987814        13950    13.396847    1.7058632    11.690983    14.527561   0.64394791   -3.3003977 -0.074541847  -0.10558573 
   44200         0.01    1.1280927 -0.056317761        13950    13.411007    1.6916145    11.719392    14.553324   0.65898885   -3.3128442 -0.076691891  -0.10338494 
   44300         0.01    1.1257374 -0.085429381        13950    13.400296    1.6880827    11.712214    14.544307   0.64206211    -3.290032 -0.078651711  -0.10547164 
   44400         0.01    1.1185377  -0.14782161        13950    13.410479    1.6772865    11.733192    14.546322   0.63968144   -3.2735095 -0.077384444  -0.10191734 
   44500         0.01    1.1209146   0.03024902        13950    13.401064    1.6808507    11.720213    14.536931   0.64635437   -3.2864902 -0.075234196  -0.10134838 
   44600         0.01    1.1158979 0.0046199368        13950     13.39792     1.673328    11.724592    14.534322   0.64615492   -3.2808287 -0.072163723   -0.1028929 
   44700         0.01     1.113386 -0.053020381        13950    13.397573    1.6695614    11.728012    14.522326   0.63934824   -3.2540707 -0.075338841  -0.10425293 
   44800         0.01    1.1220941 -0.0019198554        13950    13.391565    1.6826193    11.708945    14.533361   0.63228065   -3.2693217 -0.081485281  -0.10588897 
   44900         0.01    1.1275467  -0.07648482        13950    13.399648    1.6907958    11.708852     14.50792   0.64344871   -3.2684935 -0.069024332  -0.10499945 
   45000         0.01     1.130139 -0.017518289        13950    13.395595    1.6946831    11.700912    14.518545   0.59868628   -3.2343885 -0.077868321  -0.10406275 
   45100         0.01    1.1237974 -0.081805907        13950    13.395701    1.6851736    11.710527    14.524553   0.64632056    -3.271495 -0.082933402  -0.10591808 
   45200         0.01    1.1235019 -0.044555762        13950    13.397123    1.6847305    11.712392    14.545863   0.63606287   -3.2800037 -0.081269604   -0.1082605 
   45300         0.01    1.1131517  -0.16328423        13950    13.395169    1.6692099    11.725959    14.525303   0.65250067    -3.267856 -0.076977762  -0.10701106 
   45400         0.01    1.0987065 -0.024216387        13950    13.394211    1.6475488    11.746663    14.550986   0.64684795   -3.2613944 -0.080592088  -0.10918532 
   45500         0.01    1.1248398  -0.05505401        13950    13.394466    1.6867366    11.707729    14.513639   0.63451134   -3.2537817  -0.07829754  -0.10834259 
   45600         0.01    1.1283993 -0.030362648        13950    13.393359    1.6920743    11.701285     14.52938   0.64284367   -3.2782635 -0.084011694  -0.10866379 
   45700         0.01    1.1354327 -0.0052259562        13950    13.393842    1.7026211    11.691221    14.524877   0.65395263   -3.3073791 -0.076228926  -0.10400098 
   45800         0.01     1.135337  0.083651437        13950    13.395195    1.7024776    11.692717    14.540113   0.64593714   -3.3099444 -0.078487318  -0.10490121 
   45900         0.01    1.1353072  -0.01552073        13950    13.397089    1.7024329    11.694656    14.545201    0.6513214   -3.3175781 -0.079468577  -0.10481921 
   46000         0.01     1.140448 0.00029848734        13950    13.406267    1.7101417    11.696125    14.518556   0.64200076   -3.2848928 -0.075598436  -0.10394091 
   46100         0.01     1.139147 -0.056829982        13950    13.404135    1.7081908    11.695944    14.539123   0.64413096   -3.3105213  -0.07452651   -0.1022622 
   46200         0.01    1.1339798  0.027859437        13950    13.399363    1.7004424     11.69892    14.525098   0.66902632    -3.312435 -0.076872725  -0.10589668 
   46300         0.01    1.1217594 -0.048195608        13950    13.390705    1.6821176    11.708587    14.539727    0.6597291   -3.3087658 -0.076561589  -0.10554128 
   46400         0.01    1.1080097 -0.086936155        13950    13.392882    1.6614993    11.731383    14.530352   0.65924113    -3.274176 -0.077614924  -0.10641908 
   46500         0.01    1.1294746 -0.021605202        13950    13.382361    1.6936867    11.688674    14.515897   0.62606036   -3.2714515 -0.077201075  -0.10463021 
   46600         0.01    1.1141185 -0.034272792        13950     13.38387    1.6706597     11.71321    14.528658   0.64374868   -3.2762199 -0.077669816  -0.10530726 
   46700         0.01    1.1280657 -0.043108603        13950    13.384353     1.691574    11.692779    14.543612   0.62001538   -3.2926865  -0.07508368  -0.10307812 
   46800         0.01    1.1089034 -0.024430387        13950    13.392349    1.6628395     11.72951    14.567666   0.60079472   -3.2574888 -0.077247457  -0.10421492 
   46900         0.01    1.1291677  0.011985913        13950    13.398417    1.6932266    11.705191    14.512678   0.63300641   -3.2606801 -0.076523333  -0.10328976 
   47000         0.01     1.118633   0.01808521        13950    13.396996    1.6774294    11.719567    14.553255   0.62871462   -3.2817882 -0.077996898  -0.10261693 
   47100         0.01    1.1386328 -0.036701005        13950    13.413406    1.7074198    11.705986    14.556917    0.6301379   -3.3005688 -0.076923515  -0.10357625 
   47200         0.01    1.1603869 -0.061292928        13950    13.407012    1.7400409    11.666971    14.539562   0.63005259    -3.320923 -0.075313804  -0.10640737 
   47300         0.01    1.1369933 -0.072746777        13950    13.402282    1.7049613    11.697321    14.546858    0.6454345   -3.3135155  -0.07621134  -0.10524509 
   47400         0.01    1.1564353  0.013581453        13950    13.405845    1.7341152     11.67173    14.527228   0.65257234    -3.328447 -0.075145268  -0.10447849 
   47500         0.01    1.1514264 -0.068620591        13950    13.411739    1.7266042    11.685135    14.552162   0.64722915   -3.3289422 -0.079011022  -0.10630252 
   47600         0.01    1.1439296  -0.04126604        13950    13.409092    1.7153625     11.69373    14.537912   0.63419583   -3.3022924 -0.073041755  -0.10304448 
   47700         0.01     1.132813 -0.013234094        13950    13.413397    1.6986928    11.714704    14.552927   0.65253894   -3.3070578 -0.077723877  -0.10598042 
   47800         0.01    1.1300418 -0.036647151        13950    13.404049    1.6945373    11.709512    14.539938   0.66076293   -3.3063395  -0.07862774  -0.10622221 
   47900         0.01    1.1238426  -0.03365051        13950    13.411782    1.6852414    11.726541    14.537359   0.64224591   -3.2669208 -0.079597432   -0.1065459 
   48000         0.01    1.1293168 0.0068502897        13950    13.415298    1.6934501    11.721847    14.559127   0.64915475    -3.306131 -0.076412499   -0.1038909 
   48100         0.01    1.1289677 -0.096750021        13950    13.406896    1.6929265     11.71397    14.534094   0.64301915   -3.2777671 -0.079820621  -0.10555522 
   48200         0.01    1.1344478  0.028371422        13950    13.403801    1.7011442    11.702656     14.54558   0.66945997    -3.330488 -0.076325744  -0.10556986 
   48300         0.01    1.1253222   0.02071137        13950    13.400919      1.68746    11.713459    14.536132   0.65115543   -3.2895244 -0.079049445  -0.10525472 
   48400         0.01    1.1316578  0.034894187        13950     13.40379    1.6969606    11.706829    14.521552   0.65259958   -3.2835263 -0.078937274  -0.10485878 
   48500         0.01    1.1098245 -0.025758406        13950    13.406634    1.6642208    11.742414    14.546704   0.67363889   -3.2977185 -0.076454826  -0.10375567 
   48600         0.01    1.1545576 -0.068057782        13950     13.40374    1.7312996    11.672441    14.534324   0.62657492   -3.3037248 -0.079968977  -0.10476423 
   48700         0.01    1.1415004 -0.060548763        13950    13.403275    1.7117198    11.691555    14.541986   0.65502934   -3.3224078 -0.076076824  -0.10697527 
   48800         0.01    1.1387769 -0.068753499        13950    13.406174    1.7076358    11.698538    14.533915   0.62333849   -3.2758743 -0.076104603  -0.10673635 
   48900         0.01    1.1308659 -0.089372868        13950    13.405925    1.6957731    11.710152    14.552055   0.64506579   -3.2976207 -0.081288972  -0.10805884 
   49000         0.01    1.1471001 -0.029430261        13950    13.404052    1.7201167    11.683936    14.537447   0.62843785   -3.2974574 -0.077101159  -0.10739089 
   49100         0.01    1.1532147  -0.03238131        13950    13.402133    1.7292859    11.672847    14.537752   0.62751403   -3.3064212 -0.078524733  -0.10747293 
   49200         0.01    1.1172531 -0.010190782        13950    13.409434    1.6753601    11.734074    14.552646   0.66444669    -3.298898 -0.077116405  -0.10700479 
   49300         0.01    1.1481088 -0.062393204        13950    13.410837    1.7216294    11.689208    14.533385    0.6424238   -3.3061836  -0.07448843  -0.10592879 
   49400         0.01    1.1210974 -0.020507363        13950     13.41756    1.6811248    11.736435    14.554062   0.65751816   -3.2898755 -0.078951272  -0.10631833 
   49500         0.01    1.1171396   0.01799519        13950    13.405732      1.67519    11.730542    14.542381   0.65609285   -3.2846797 -0.077965814  -0.10528636 
   49600         0.01    1.1287614 0.0073091199        13950    13.401614    1.6926173    11.708997    14.531559   0.64798812   -3.2864492 -0.078664379  -0.10543691 
   49700         0.01    1.1448363 0.0091065022        13950    13.395945    1.7167222    11.679223    14.523809   0.65143806   -3.3086407 -0.080525751  -0.10685782 
   49800         0.01    1.1444899  -0.10511591        13950    13.391319    1.7162027    11.675116    14.543658   0.63739218   -3.3217473 -0.076537127  -0.10764958 
   49900         0.01    1.1495275  0.027338907        13950    13.395219    1.7237568    11.671462    14.546183   0.62962442   -3.3217331  -0.07700405  -0.10560876 
   50000         0.01    1.1687383 0.0081738735        13950    13.389309    1.7525641    11.636745    14.527115   0.62566522   -3.3337005 -0.076937666  -0.10539731 
   50100         0.01    1.1361753 -0.036294057        13950    13.389694    1.7037346    11.685959    14.551152   0.63636227   -3.3188549 -0.077899205  -0.10480164 
   50200         0.01    1.1221788 -0.057758492        13950     13.39836    1.6827464    11.715614    14.563537    0.6589596    -3.318699 -0.082185997  -0.10599735 
   50300         0.01    1.1501987 -0.026958194        13950    13.393982    1.7247633    11.669219    14.540448   0.63087288   -3.3155724 -0.079996781  -0.10653256 
   50400         0.01    1.1419015 -0.029529184        13950     13.39681    1.7123213    11.684489    14.560484   0.65135073   -3.3373572 -0.081599975   -0.1083889 
   50500         0.01    1.1334868 -0.022096993        13950    13.392839    1.6997032    11.693136    14.541114   0.65213182   -3.3130655 -0.080097152  -0.10694717 
   50600         0.01    1.1417858 -0.0034741922        13950    13.388858    1.7121478     11.67671    14.540759   0.64718226   -3.3255359  -0.08082987   -0.1048653 
   50700         0.01    1.1508709  0.025397197        13950     13.39023    1.7257712    11.664459    14.529242   0.64624478   -3.3225975  -0.08265359  -0.10577709 
   50800         0.01    1.1293212 0.0056682391        13950    13.393348    1.6934567    11.699891    14.548197   0.64467277   -3.3122215  -0.07785322  -0.10290442 
   50900         0.01    1.1454541 0.0082141078        13950    13.390442    1.7176486    11.672793    14.507718   0.63464771   -3.2861437 -0.080016425  -0.10341187 
   51000         0.01    1.1376255 -0.039738165        13950    13.393196    1.7059093    11.687287    14.522357   0.65404893   -3.3051002 -0.080296347  -0.10372263 
   51100         0.01    1.1372645 -0.001576944        13950    13.393187     1.705368    11.687819    14.515923   0.65300532    -3.299703 -0.077286213  -0.10411979 
   51200         0.01    1.1346434  0.018137824        13950    13.402321    1.7014375    11.700883    14.537615   0.63396033   -3.2856996 -0.080720194  -0.10427273 
   51300         0.01    1.1256626  -0.10154225        13950    13.409292    1.6879705    11.721322    14.531999   0.63374383   -3.2594981  -0.07904008  -0.10588279 
   51400         0.01    1.1293892 -0.090560656        13950    13.412911    1.6935587    11.719353    14.534579   0.62986833   -3.2591066 -0.080018873  -0.10596869 
   51500         0.01    1.1274768  -0.11493774        13950    13.418672    1.6906909    11.727981    14.528783   0.64090446   -3.2512802 -0.084131144  -0.10629467 
   51600         0.01    1.1275283   0.03151866        13950    13.426676    1.6907682    11.735908    14.544199   0.62167344   -3.2413362 -0.080341828  -0.10828655 
   51700         0.01    1.1460729 -0.059765316        13950    13.431459    1.7185765    11.712882    14.530877   0.63146523   -3.2534571 -0.086341254  -0.10966127 
   51800         0.01    1.1325343 -0.029720124        13950    13.429893    1.6982749    11.731618    14.544178   0.64007049   -3.2675486  -0.07770704  -0.10737471 
   51900         0.01    1.1500614 -0.019030344        13950    13.432512    1.7245574    11.707955    14.531578    0.6366898   -3.2742918 -0.080125361  -0.10589565 
   52000         0.01    1.1278215  -0.10202832        13950    13.425316    1.6912078    11.734109     14.52214    0.6691577   -3.2671795 -0.085182411  -0.10482694 
   52100         0.01    1.1515617 -0.022451642        13950    13.428716    1.7268071    11.701909    14.520172   0.66396491    -3.299427 -0.080090166   -0.1027108 
   52200         0.01    1.1322209  0.024408647        13950    13.431041     1.697805    11.733236    14.532485    0.6399221   -3.2619014 -0.076788947  -0.10048124 
   52300         0.01     1.144893 -0.030494943        13950    13.433906    1.7168072    11.717099    14.533244   0.63004638   -3.2662581 -0.078028554  -0.10190481 
   52400         0.01    1.1246886 -0.055420131        13950    13.441147      1.68651    11.754637    14.566482    0.6240703   -3.2575286 -0.074399722  -0.10398731 
   52500         0.01    1.1421305 -0.087127552        13950    13.441346    1.7126647    11.728681    14.548917   0.66367181   -3.2973789 -0.079962022  -0.10656644 
   52600         0.01    1.1392172 -0.022614812        13950    13.442366     1.708296     11.73407    14.517923   0.66757074   -3.2646311 -0.082201791  -0.10459149 
   52700         0.01    1.1155541 -0.014704646        13950    13.437014    1.6728125    11.764202    14.544941   0.64205705   -3.2390277 -0.079639944  -0.10412866 
   52800         0.01    1.1123347 -0.051534112        13950    13.435231    1.6679848    11.767247    14.548163   0.68917175   -3.2846016 -0.080118485   -0.1053685 
   52900         0.01     1.126769 -0.022734138        13950    13.445119    1.6896296    11.755489    14.526366   0.65907704     -3.24784 -0.077074568  -0.10503896 
   53000         0.01    1.1405908 -0.031223932        13950    13.445553    1.7103559    11.735197    14.534381   0.65258175   -3.2643562 -0.082880887   -0.1045291 
   53100         0.01    1.1473629 -0.0014244671        13950    13.457226    1.7205109    11.736715    14.528538   0.67041827   -3.2725298 -0.083483597   -0.1062275 
   53200         0.01     1.163546 -0.0016848502        13950    13.457018    1.7447779     11.71224    14.522219   0.63613431    -3.261399 -0.079208362  -0.10550631 
   53300         0.01    1.1471176  -0.11418546        13950    13.446168    1.7201431    11.726025    14.522413   0.63862318   -3.2514859 -0.078162538  -0.10536237 
   53400         0.01    1.1391142 0.0050997194        13950    13.442355    1.7081416    11.734213    14.533528    0.6307486   -3.2468943 -0.078613257  -0.10455566 
   53500         0.01    1.1243781  0.022698026        13950    13.454093    1.6860444    11.768049    14.543765   0.66329008   -3.2559511  -0.07672313   -0.1063322 
   53600         0.01    1.1334054 -0.070761587        13950    13.440783    1.6995811    11.741202    14.527549   0.64860899   -3.2477705 -0.079890942   -0.1072946 
   53700         0.01    1.1627722 -0.050805887        13950    13.450171    1.7436177    11.706553    14.522854   0.64573715   -3.2719981 -0.081260014  -0.10877996 
   53800         0.01    1.1389462  0.018272693        13950    13.447611    1.7078898    11.739721    14.537442   0.64826558    -3.261996 -0.077356548  -0.10663319 
   53900         0.01    1.1516569  -0.11645882        13950    13.447553    1.7269499    11.720603    14.534889   0.65737684   -3.2897665 -0.076310931  -0.10558496 
   54000         0.01    1.1568163 -0.063920387        13950    13.460696    1.7346866     11.72601    14.559886   0.64927289   -3.2967093 -0.079546006  -0.10689395 
   54100         0.01    1.1443738 -0.073938898        13950    13.460703    1.7160287    11.744674    14.529174   0.68889128   -3.2832657 -0.081276821  -0.10884836 
   54200         0.01    1.1294311 -0.022179534        13950    13.462339    1.6936214    11.768718    14.549039   0.66463309   -3.2556687 -0.081482056  -0.10780362 
   54300         0.01    1.1446364 -0.087042189        13950    13.463448    1.7164224    11.747025    14.570868   0.62854799   -3.2614991 -0.083768838  -0.10712219 
   54400         0.01    1.1641777 -0.041624169        13950    13.458658    1.7457253    11.712932    14.547692   0.61826159   -3.2682233 -0.079376041  -0.10542183 
   54500         0.01    1.1517375 0.0073159033        13950    13.463979    1.7270707    11.736908    14.544619   0.62146763   -3.2453962 -0.077604905  -0.10617735 
   54600         0.01     1.158288 -0.063472188        13950     13.46499    1.7368935    11.728096     14.52979   0.62724432   -3.2474036 -0.077503669  -0.10403103 
   54700         0.01    1.1480801 -0.097026948        13950    13.467664    1.7215863    11.746077    14.541284   0.64260615   -3.2548657 -0.077727629  -0.10521919 
   54800         0.01      1.14215 -0.030486158        13950    13.473222     1.712694    11.760528    14.559331   0.65584471    -3.267417 -0.080912079   -0.1063191 
   54900         0.01    1.1336273 -0.056867013        13950    13.465301    1.6999139    11.765387    14.556026   0.64777232   -3.2603352 -0.074416599  -0.10365934 
   55000         0.01    1.1476997 -0.021313196        13950    13.459343     1.721016    11.738328      14.5308   0.68348226   -3.2909954   -0.0792408  -0.10571845 
   55100         0.01    1.1588109 -0.066252991        13950    13.457884    1.7376775    11.720207    14.542821   0.65475304   -3.2924678 -0.079012484  -0.10588685 
   55200         0.01    1.1692945 -0.013428106        13950    13.467079    1.7533981    11.713681    14.516955   0.66995389    -3.289985 -0.077911495   -0.1053307 
   55300         0.01    1.1447677 -0.024720898        13950    13.458315    1.7166193    11.741696    14.541572   0.65724201   -3.2762321 -0.076067125  -0.10481887 
   55400         0.01    1.1507562   -0.1310701        13950    13.450421    1.7255993    11.724822    14.516899    0.6628085    -3.273674 -0.075338452  -0.10587314 
   55500         0.01    1.1518893 -0.012516714        13950    13.445959    1.7272983     11.71866    14.537386   0.63287935   -3.2686608 -0.076323329  -0.10662097 
   55600         0.01    1.1497566 -0.032964637        13950    13.448486    1.7241002    11.724385    14.539291   0.64070079   -3.2784103 -0.073870052  -0.10332651 
   55700         0.01    1.1590795 -0.020046576        13950    13.449995    1.7380802    11.711915     14.53182   0.65671564   -3.2928061 -0.078721434  -0.10509335 
   55800         0.01    1.1347313 -0.014048478        13950    13.452866    1.7015694    11.751296    14.578844   0.64579601   -3.2912144  -0.07768689  -0.10444247 
   55900         0.01    1.1463294 -0.045603973        13950    13.443534    1.7189611    11.724573    14.551089   0.65877327   -3.3035413 -0.075916659  -0.10583114 
   56000         0.01    1.1574385 -0.014154401        13950    13.443182    1.7356195    11.707562    14.540284   0.63003115   -3.2784686 -0.079872951  -0.10441148 
   56100         0.01    1.1644343 -0.057427672        13950    13.448007    1.7461099    11.701897    14.530444   0.64188499   -3.2889755 -0.076115282  -0.10534091 
   56200         0.01    1.1720094 -0.049192029        13950    13.436772    1.7574691    11.679303    14.545651   0.63408794   -3.3167834 -0.079319164  -0.10433393 
   56300         0.01     1.153162 -0.0085415795        13950    13.436475    1.7292069    11.707268    14.539208   0.62459085   -3.2783827 -0.074855816  -0.10329197 
   56400         0.01    1.1421351 -0.0012875368        13950    13.434347    1.7126715    11.721675    14.539245   0.64076307   -3.2802182 -0.074854637  -0.10325985 
   56500         0.01    1.1464025   0.01472733        13950    13.430317    1.7190707    11.711246    14.525243   0.65191346   -3.2782679 -0.082393654  -0.10524903 
   56600         0.01    1.1504912 -0.039381774        13950    13.433882    1.7252018    11.708681    14.543037   0.63204926   -3.2749245 -0.084587152  -0.10689387 
   56700         0.01    1.1466087 -0.072926944        13950    13.425858      1.71938    11.706478    14.526468   0.67312947   -3.3121132 -0.076639056  -0.10436668 
   56800         0.01    1.1489213 -0.041428512        13950    13.424455    1.7228478    11.701607    14.523621   0.65991992   -3.2966399 -0.079004754   -0.1062894 
   56900         0.01    1.1671086 -0.015875829        13950    13.422842    1.7501202    11.672721    14.549452   0.62002984   -3.3077376 -0.082634015  -0.10638854 
   57000         0.01    1.1454011  0.027195931        13950    13.427549    1.7175691     11.70998    14.527413   0.65799401   -3.2891482 -0.081678356  -0.10460051 
   57100         0.01    1.1399001 -0.074951662        13950    13.435208    1.7093201    11.725888    14.555266   0.65082949    -3.290773  -0.08354354  -0.10589101 
   57200         0.01     1.134065  0.017118019        13950    13.415894    1.7005702    11.715324    14.547583    0.6494618   -3.2933517 -0.081359451  -0.10700946 
   57300         0.01    1.1480699 -0.041549772        13950    13.414595    1.7215711    11.693024    14.553454   0.65800551   -3.3274037 -0.083504269  -0.10752736 
   57400         0.01     1.128308 -0.044879511        13950    13.411002    1.6919374    11.719065    14.571401   0.65033534   -3.3164373 -0.078782989  -0.10745148 
   57500         0.01     1.149915  -0.07669314        13950    13.409306    1.7243379    11.684968    14.529318   0.64047025   -3.3006237 -0.077654995   -0.1065417 
   57600         0.01    1.1414369 0.0027445377        13950    13.414335    1.7116246     11.70271    14.555454    0.6537277   -3.3159851 -0.082197207  -0.10828965 
   57700         0.01    1.1531833  0.016426262        13950    13.409806    1.7292387    11.680567    14.539374   0.62376678   -3.2933245 -0.080682273  -0.10856689 
   57800         0.01    1.1298667 -0.087609424        13950    13.416308    1.6942747    11.722033    14.561619   0.65263835   -3.3032557   -0.0801349   -0.1088335 
   57900         0.01    1.1419713  0.075627191        13950    13.416191    1.7124259    11.703765    14.530963   0.64228405   -3.2796973 -0.083327488  -0.10645708 
   58000         0.01    1.1380727 -0.049938391        13950    13.419068    1.7065799    11.712489    14.549812   0.64518886   -3.2923298 -0.083205634  -0.10697653 
   58100         0.01     1.130829  -0.06707488        13950    13.408689    1.6957177    11.712972    14.536123   0.66020602   -3.2920691 -0.084088403  -0.10720015 
   58200         0.01    1.1458249   0.04315115        13950    13.409568    1.7182046    11.691363    14.534044    0.6411004   -3.2989597 -0.079236319  -0.10558544 
   58300         0.01    1.1542333   -0.0242978        13950    13.408735    1.7308133    11.677921    14.540923   0.65260905   -3.3272929 -0.081452614  -0.10686578 
   58400         0.01    1.1496761  -0.06546116        13950     13.39683    1.7239795     11.67285    14.540458   0.65952404   -3.3324126  -0.08731495  -0.10740412 
   58500         0.01    1.1433963 -0.036073848        13950    13.390307    1.7145629    11.675744    14.518087   0.64640755   -3.3051301 -0.079414103  -0.10420553 
   58600         0.01    1.1480373  0.022564103        13950    13.379332    1.7215221     11.65781    14.508391   0.63685055   -3.3045802 -0.079997349  -0.10285387 
   58700         0.01    1.1322547 -0.0013699499        13950    13.386654    1.6978556    11.688798    14.549651   0.63526096   -3.3174373 -0.076091664  -0.10258462 
   58800         0.01    1.1420544 -0.036410846        13950    13.380849    1.7125506    11.668298    14.532596   0.63588345   -3.3206426 -0.077649708  -0.10188914 
   58900         0.01    1.1312533 -0.092964666        13950    13.375992     1.696354    11.679638    14.538054   0.62930049   -3.3084588 -0.078535192  -0.10072331 
   59000         0.01    1.1507164 -0.019526675        13950    13.369848    1.7255395    11.644308    14.522426   0.60974966   -3.3145589 -0.074767953 -0.098540448 
   59100         0.01    1.1288821 -0.048720607        13950    13.379187    1.6927983    11.686389    14.540546   0.62891116   -3.3028423 -0.079516736  -0.10070988 
   59200         0.01    1.1261701 0.0066503986        13950    13.383782    1.6887316     11.69505    14.535357    0.6422299   -3.2966595  -0.08324329  -0.10263395 
   59300         0.01    1.1430634  -0.12020419        13950    13.389254    1.7140636     11.67519    14.518176   0.63682887    -3.300266 -0.077271557  -0.10227694 
   59400         0.01    1.1373446  -0.05151527        13950    13.375673    1.7054881    11.670185    14.518261   0.63559943   -3.2965969 -0.080654138  -0.10642456 
   59500         0.01    1.1268268 -0.063931131        13950    13.376687    1.6897162    11.686971    14.536389   0.63432539   -3.3027132 -0.076048935  -0.10498133 
   59600         0.01    1.1284913 -0.040303134        13950    13.375467    1.6922123    11.683255    14.539052   0.64305533   -3.3174044 -0.075405597   -0.1060425 
   59700         0.01    1.1357667 -0.0034846627        13950    13.367243     1.703122    11.664121    14.544642   0.64184393   -3.3331521 -0.083232382  -0.10598097 
   59800         0.01    1.1542549  -0.04120255        13950    13.362927    1.7308457    11.632081     14.54667   0.62813914   -3.3589126 -0.077489964  -0.10632546 
   59900         0.01    1.1581896  0.023007142        13950    13.356208    1.7367459    11.619462    14.528692    0.6443036   -3.3715667 -0.077154093  -0.10481279 
   60000         0.01    1.1651192  0.061762981        13950    13.356853    1.7471371    11.609716    14.523625   0.63623288   -3.3631282 -0.080829405  -0.10618456 
   60100         0.01    1.1605016  0.021728621        13950    13.347708    1.7402128    11.607495    14.527605    0.6178673   -3.3494898 -0.082651518  -0.10583551 
   60200         0.01    1.1272651 -0.036686495        13950    13.357485    1.6903735    11.667111    14.540482   0.63496263   -3.3249092 -0.079881598  -0.10354273 
   60300         0.01    1.1285142 -0.0031621826        13950     13.35928    1.6922466    11.667034    14.534143   0.65170447    -3.327285 -0.085306191  -0.10622241 
   60400         0.01    1.1540225 -0.030032102        13950    13.352945    1.7304972    11.622448    14.532173   0.64561521   -3.3641865 -0.085140682  -0.10601348 
   60500         0.01    1.1332602  0.042970554        13950    13.353247    1.6993634    11.653884    14.539267   0.64726766   -3.3446403 -0.082194552  -0.10581562 
   60600         0.01     1.143643  -0.01897484        13950    13.356606    1.7149328    11.641674    14.542644    0.6488521   -3.3630708 -0.081375503  -0.10537593 
   60700         0.01    1.1670767 -0.059160042        13950    13.358188    1.7500724    11.608116     14.53118   0.63042413   -3.3615848 -0.085390627  -0.10651327 
   60800         0.01    1.1307898  0.036679009        13950    13.371458    1.6956589    11.675799    14.548752   0.64027547   -3.3187373 -0.087934498  -0.10655643 
   60900         0.01    1.1287155   0.01113685        13950    13.360107    1.6925485    11.667559    14.539978   0.65493085   -3.3321924 -0.087631971  -0.10752602 
   61000         0.01    1.1222175 -0.060986803        13950    13.354563    1.6828044    11.671758    14.531588    0.6371227   -3.3069347 -0.083107525  -0.10691046 
   61100         0.01    1.1321535 -0.056577679        13950    13.350022    1.6977039    11.652318     14.51587   0.61930814   -3.2876651 -0.088071606  -0.10712319 
   61200         0.01    1.1444646 -0.034734067        13950    13.349721    1.7161648    11.633557    14.537763   0.62009075   -3.3317523 -0.083769283  -0.10877533 
   61300         0.01    1.1214155 0.0084896682        13950    13.358977    1.6816019    11.677375    14.539967   0.61867299    -3.294589 -0.078201407  -0.10847446 
   61400         0.01    1.1099211  -0.06312715        13950    13.360411    1.6643656    11.696046    14.550816    0.6000456   -3.2641121 -0.082141114  -0.10856246 
   61500         0.01    1.1040733 -0.090467078        13950    13.369162    1.6555966    11.713566    14.534273   0.65423604   -3.2861681 -0.082085319  -0.10669049 
   61600         0.01    1.1247159  -0.10783342        13950    13.364501    1.6865509     11.67795    14.538727   0.62206069   -3.2923194 -0.082229973   -0.1082881 
   61700         0.01     1.127065 -0.039278198        13950    13.365538    1.6900735    11.675465    14.520788   0.63024191   -3.2843772 -0.082853537  -0.10833381 
   61800         0.01    1.1377379 -0.074965519        13950    13.367853    1.7060778    11.661775     14.52922   0.63902576   -3.3178063  -0.08021388   -0.1084503 
   61900         0.01    1.1164586   0.10429381        13950    13.360742    1.6741688    11.686573    14.538717   0.64665349   -3.3114369 -0.079216446  -0.10814354 
   62000         0.01    1.1365202  0.021100802        13950     13.35824    1.7042519    11.653988    14.552253   0.64745206   -3.3586639 -0.079618928  -0.10743444 
   62100         0.01    1.1559825 -0.058821038        13950    13.350409    1.7334363    11.616973    14.511602   0.63838611   -3.3459664  -0.07979235  -0.10725618 
   62200         0.01    1.1357917 -0.039602942        13950    13.349516    1.7031595    11.646356    14.543142   0.64998369   -3.3606659 -0.078433951  -0.10767012 
   62300         0.01    1.1543665  -0.01590602        13950    13.340901     1.731013    11.609888    14.536581   0.63418644   -3.3767182 -0.078529985  -0.10563156 
   62400         0.01    1.1199498 -0.044638379        13950    13.348657    1.6794039    11.669253    14.554083   0.64279327   -3.3439154 -0.078889188  -0.10481873 
   62500         0.01    1.1336851 -0.018285967        13950    13.344197    1.7000005    11.644197    14.538184   0.62718043    -3.332118   -0.0820727   -0.1069773 
   62600         0.01    1.1260743 -0.079234412        13950    13.348294    1.6885878    11.659706    14.544919   0.63859549   -3.3384368 -0.079313731  -0.10605738 
   62700         0.01     1.103741 0.0026264814        13950     13.33407    1.6550983    11.678972    14.549403   0.65173096   -3.3355468  -0.08072692  -0.10588843 
   62800         0.01     1.109517  -0.12227912        13950     13.33891    1.6637596     11.67515    14.529472   0.63442264   -3.3042839 -0.078902011  -0.10555898 
   62900         0.01    1.1151312 -0.047699943        13950    13.347983    1.6721783    11.675804    14.536211   0.63991422    -3.315688 -0.078707172   -0.1059253 
   63000         0.01    1.1185921 -0.018331763        13950    13.343122    1.6773681    11.665754    14.519036   0.63975284   -3.3169427 -0.072890754  -0.10320114 
   63100         0.01    1.1393376 -0.022098182        13950    13.356347    1.7084767     11.64787    14.511735   0.63716719   -3.3246159 -0.072723782  -0.10369232 
   63200         0.01    1.1272943  0.018110616        13950    13.352291    1.6904173    11.661874    14.525041   0.62839745   -3.3056553 -0.080023444  -0.10588512 
   63300         0.01    1.1275863 -0.094679166        13950    13.365398    1.6908552    11.674543    14.517263   0.65274466   -3.3086715 -0.080804958  -0.10598827 
   63400         0.01    1.1407291 -0.018272246        13950    13.368481    1.7105632    11.657918    14.511947   0.61662491   -3.2882416  -0.07592946  -0.10648272 
   63500         0.01     1.129195  0.018749701        13950    13.366932    1.6932675    11.673665    14.515136   0.65709958   -3.3158187 -0.076744272  -0.10600758 
   63600         0.01     1.145411 0.0036762005        13950    13.359056    1.7175839    11.641472    14.513904   0.64551127   -3.3294145 -0.080939234   -0.1075896 
   63700         0.01    1.1508102 -0.053474867        13950    13.363875    1.7256802    11.638195    14.500383   0.64907475   -3.3258448 -0.080162365  -0.10525606 
   63800         0.01    1.1149963  -0.02018236        13950    13.373089    1.6719761    11.701113    14.518467   0.66367478   -3.2889694 -0.085653886  -0.10640519 
   63900         0.01    1.1457821 -0.057595301        13950     13.37423    1.7181404     11.65609    14.521666   0.62171965   -3.3023592 -0.078064331  -0.10687235 
   64000         0.01     1.103982 -0.0016414356        13950    13.387681    1.6554596    11.732222    14.561223   0.65013839   -3.2950182 -0.076083265  -0.10803828 
   64100         0.01    1.1623868 -0.033138339        13950    13.384359    1.7430398    11.641319      14.5284   0.63133128   -3.3327646 -0.078597718  -0.10705033 
   64200         0.01    1.1254606 -0.011447227        13950    13.387943    1.6876677    11.700275    14.545421   0.65269822   -3.3093646 -0.081599326  -0.10688081 
   64300         0.01    1.1522734 -0.042010274        13950    13.384759    1.7278743    11.656884    14.530908    0.6440048   -3.3366533  -0.07743294  -0.10394224 
   64400         0.01    1.1393205 -0.052732704        13950    13.385563     1.708451    11.677112    14.556276   0.63693747   -3.3235899 -0.084389061  -0.10812297 
   64500         0.01    1.1482519  0.035219193        13950    13.389046     1.721844    11.667201    14.543841   0.62538642    -3.310538 -0.083362287  -0.10812598 
   64600         0.01    1.1357932 -0.042292354        13950    13.379697    1.7031616    11.676536    14.544871   0.65814302   -3.3403659 -0.080317766  -0.10579452 
   64700         0.01    1.1479156 -0.034464017        13950    13.379781    1.7213397    11.658441    14.522694   0.64849604   -3.3295643